LAMMPS (22 Jul 2025)
OMP_NUM_THREADS environment is not set. Defaulting to 1 thread.
  using 1 OpenMP thread(s) per MPI task
# simulation of three bead model with network percolation and
# conformational change.


##########################################

# user input
variable Nsteps         equal 200000
variable Nwrite         equal   1000
variable seed           equal 349503
variable tstep          equal      1
variable stretch_force  equal     10

##########################################

# configuration
units real
boundary p p p
atom_style bond         # bead-spring polymer
read_data network.in extra/bond/per/atom 2 extra/special/per/atom 3
Reading data file ...
  orthogonal box = (-100 -100 -100) to (100 100 100)
  1 by 1 by 1 MPI processor grid
  reading atoms ...
  1500 atoms
  scanning bonds ...
  4 = max bonds/atom
  orthogonal box = (-100 -100 -100) to (100 100 100)
  1 by 1 by 1 MPI processor grid
  reading bonds ...
  1500 bonds
Finding 1-2 1-3 1-4 neighbors ...
  special bond factors lj:    0        0        0       
  special bond factors coul:  0        0        0       
     2 = max # of 1-2 neighbors
     2 = max # of 1-3 neighbors
     4 = max # of 1-4 neighbors
     5 = max # of special neighbors
  special bonds CPU = 0.000 seconds
  read_data CPU = 0.010 seconds

labelmap atom 1 stic 2 hinge

group stickers         type 1
1000 atoms in group stickers
group hinges           type 2
500 atoms in group hinges

# three bead unfolding template loading
molecule folded folded_three_bead.data
Read molecule template folded:
folded three bead
  1 molecules
  0 fragments
  0 bodies
  3 atoms with max type 2
  3 bonds with max type 2
  0 angles with max type 0
  0 dihedrals with max type 0
  0 impropers with max type 0
molecule unfolded unfolded_three_bead.data
Read molecule template unfolded:
unfolded three bead
  1 molecules
  0 fragments
  0 bodies
  3 atoms with max type 2
  2 bonds with max type 1
  0 angles with max type 0
  0 dihedrals with max type 0
  0 impropers with max type 0

# intermolecular template loading

# loading sticker-sticker intermolecular templates
molecule pre_ssfu intermoltemps/pre_sticstic_fu_inter.data
Read molecule template pre_ssfu:
two three beads, one folded and unfolded, pre sticker-sticker intermolecular particlesBonding
  1 molecules
  0 fragments
  0 bodies
  6 atoms with max type 2
  5 bonds with max type 2
  0 angles with max type 0
  0 dihedrals with max type 0
  0 impropers with max type 0
molecule post_ssfu intermoltemps/post_sticstic_fu_inter.data
Read molecule template post_ssfu:
two three beads, one folded and unfolded, post sticker-sticker intermolecular particlesBonding
  1 molecules
  0 fragments
  0 bodies
  6 atoms with max type 2
  6 bonds with max type 3
  0 angles with max type 0
  0 dihedrals with max type 0
  0 impropers with max type 0
molecule pre_ssff intermoltemps/post_sticstic_ff_inter.data
Read molecule template pre_ssff:
two three beads, both folded, post sticker-sticker intermolecular particlesBonding
  1 molecules
  0 fragments
  0 bodies
  6 atoms with max type 2
  7 bonds with max type 3
  0 angles with max type 0
  0 dihedrals with max type 0
  0 impropers with max type 0
molecule post_ssff intermoltemps/post_sticstic_ff_inter.data
Read molecule template post_ssff:
two three beads, both folded, post sticker-sticker intermolecular particlesBonding
  1 molecules
  0 fragments
  0 bodies
  6 atoms with max type 2
  7 bonds with max type 3
  0 angles with max type 0
  0 dihedrals with max type 0
  0 impropers with max type 0
molecule pre_ssuu intermoltemps/pre_sticstic_uu_inter.data
Read molecule template pre_ssuu:
two three beads, both unfolded, pre sticker-sticker intermolecular particlesBonding
  1 molecules
  0 fragments
  0 bodies
  6 atoms with max type 2
  4 bonds with max type 1
  0 angles with max type 0
  0 dihedrals with max type 0
  0 impropers with max type 0
molecule post_ssuu intermoltemps/post_sticstic_uu_inter.data
Read molecule template post_ssuu:
two three beads, both unfolded, post sticker-sticker intermolecular particlesBonding
  1 molecules
  0 fragments
  0 bodies
  6 atoms with max type 2
  5 bonds with max type 3
  0 angles with max type 0
  0 dihedrals with max type 0
  0 impropers with max type 0

# loading hinge-hinge intermolecular templates
molecule pre_hhfu intermoltemps/pre_hingehinge_fu_inter.data
Read molecule template pre_hhfu:
two three beads, one folded and unfolded, pre hinge-hinge intermolecular particlesBonding
  1 molecules
  0 fragments
  0 bodies
  6 atoms with max type 2
  5 bonds with max type 2
  0 angles with max type 0
  0 dihedrals with max type 0
  0 impropers with max type 0
molecule post_hhfu intermoltemps/post_hingehinge_fu_inter.data
Read molecule template post_hhfu:
two three beads, one folded and unfolded, post hinge-hinge intermolecular particlesBonding
  1 molecules
  0 fragments
  0 bodies
  6 atoms with max type 2
  6 bonds with max type 5
  0 angles with max type 0
  0 dihedrals with max type 0
  0 impropers with max type 0
molecule pre_hhff intermoltemps/pre_hingehinge_ff_inter.data
Read molecule template pre_hhff:
two three beads, both folded, pre hinge-hinge intermolecular particlesBonding
  1 molecules
  0 fragments
  0 bodies
  6 atoms with max type 2
  6 bonds with max type 2
  0 angles with max type 0
  0 dihedrals with max type 0
  0 impropers with max type 0
molecule post_hhff intermoltemps/post_hingehinge_ff_inter.data
Read molecule template post_hhff:
two three beads, both folded, post hinge-hinge intermolecular particlesBonding
  1 molecules
  0 fragments
  0 bodies
  6 atoms with max type 2
  7 bonds with max type 5
  0 angles with max type 0
  0 dihedrals with max type 0
  0 impropers with max type 0
molecule pre_hhuu intermoltemps/pre_hingehinge_uu_inter.data
Read molecule template pre_hhuu:
two three beads, both unfolded, pre hinge-hinge intermolecular particlesBonding
  1 molecules
  0 fragments
  0 bodies
  6 atoms with max type 2
  4 bonds with max type 1
  0 angles with max type 0
  0 dihedrals with max type 0
  0 impropers with max type 0
molecule post_hhuu intermoltemps/post_hingehinge_uu_inter.data
Read molecule template post_hhuu:
two three beads, both unfolded, post hinge-hinge intermolecular particlesBonding
  1 molecules
  0 fragments
  0 bodies
  6 atoms with max type 2
  5 bonds with max type 5
  0 angles with max type 0
  0 dihedrals with max type 0
  0 impropers with max type 0

# loading sticker-hinge intermolecular templates. one is for outer sticker, one is for inner sticker
molecule pre_ishfu intermoltemps/pre_instic_hinge_fu_inter.data
Read molecule template pre_ishfu:
two three beads, one folded and unfolded, pre hinge-(inner)sticker intermolecular particlesBonding
  1 molecules
  0 fragments
  0 bodies
  6 atoms with max type 2
  5 bonds with max type 2
  0 angles with max type 0
  0 dihedrals with max type 0
  0 impropers with max type 0
molecule post_ishfu intermoltemps/post_instic_hinge_fu_inter.data
Read molecule template post_ishfu:
two three beads, one folded and unfolded, post hinge-(inner)sticker intermolecular particlesBonding
  1 molecules
  0 fragments
  0 bodies
  6 atoms with max type 2
  6 bonds with max type 4
  0 angles with max type 0
  0 dihedrals with max type 0
  0 impropers with max type 0
molecule pre_ishff intermoltemps/pre_instic_hinge_ff_inter.data
Read molecule template pre_ishff:
two three beads, both folded, pre hinge-(inner)sticker intermolecular particlesBonding
  1 molecules
  0 fragments
  0 bodies
  6 atoms with max type 2
  6 bonds with max type 2
  0 angles with max type 0
  0 dihedrals with max type 0
  0 impropers with max type 0
molecule post_ishff intermoltemps/post_instic_hinge_ff_inter.data
Read molecule template post_ishff:
two three beads, both folded, post hinge-(inner)sticker intermolecular particlesBonding
  1 molecules
  0 fragments
  0 bodies
  6 atoms with max type 2
  7 bonds with max type 4
  0 angles with max type 0
  0 dihedrals with max type 0
  0 impropers with max type 0
molecule pre_ishuu intermoltemps/pre_instic_hinge_uu_inter.data
Read molecule template pre_ishuu:
two three beads, both unfolded, pre hinge-(inner)sticker intermolecular particlesBonding
  1 molecules
  0 fragments
  0 bodies
  6 atoms with max type 2
  4 bonds with max type 1
  0 angles with max type 0
  0 dihedrals with max type 0
  0 impropers with max type 0
molecule post_ishuu intermoltemps/pre_instic_hinge_uu_inter.data
Read molecule template post_ishuu:
two three beads, both unfolded, pre hinge-(inner)sticker intermolecular particlesBonding
  1 molecules
  0 fragments
  0 bodies
  6 atoms with max type 2
  4 bonds with max type 1
  0 angles with max type 0
  0 dihedrals with max type 0
  0 impropers with max type 0

molecule pre_oshfu intermoltemps/pre_outstic_hinge_fu_inter.data
Read molecule template pre_oshfu:
two three beads, one folded and unfolded, pre hinge-(outer)sticker intermolecular particlesBonding
  1 molecules
  0 fragments
  0 bodies
  6 atoms with max type 2
  5 bonds with max type 2
  0 angles with max type 0
  0 dihedrals with max type 0
  0 impropers with max type 0
molecule post_oshfu intermoltemps/post_outstic_hinge_fu_inter.data
Read molecule template post_oshfu:
two three beads, one folded and unfolded, post hinge-(outer)sticker intermolecular particlesBonding
  1 molecules
  0 fragments
  0 bodies
  6 atoms with max type 2
  6 bonds with max type 4
  0 angles with max type 0
  0 dihedrals with max type 0
  0 impropers with max type 0
molecule pre_oshff intermoltemps/pre_outstic_hinge_ff_inter.data
Read molecule template pre_oshff:
two three beads, both folded, pre hinge-(outer)sticker intermolecular particlesBonding
  1 molecules
  0 fragments
  0 bodies
  6 atoms with max type 2
  6 bonds with max type 2
  0 angles with max type 0
  0 dihedrals with max type 0
  0 impropers with max type 0
molecule post_oshff intermoltemps/post_outstic_hinge_ff_inter.data
Read molecule template post_oshff:
two three beads, both folded, post hinge-(inner)sticker intermolecular particlesBonding
  1 molecules
  0 fragments
  0 bodies
  6 atoms with max type 2
  7 bonds with max type 4
  0 angles with max type 0
  0 dihedrals with max type 0
  0 impropers with max type 0
molecule pre_oshuu intermoltemps/pre_outstic_hinge_uu_inter.data
Read molecule template pre_oshuu:
two three beads, both unfolded, pre hinge-(outer)sticker intermolecular particlesBonding
  1 molecules
  0 fragments
  0 bodies
  6 atoms with max type 2
  4 bonds with max type 1
  0 angles with max type 0
  0 dihedrals with max type 0
  0 impropers with max type 0
molecule post_oshuu intermoltemps/pre_outstic_hinge_uu_inter.data
Read molecule template post_oshuu:
two three beads, both unfolded, pre hinge-(outer)sticker intermolecular particlesBonding
  1 molecules
  0 fragments
  0 bodies
  6 atoms with max type 2
  4 bonds with max type 1
  0 angles with max type 0
  0 dihedrals with max type 0
  0 impropers with max type 0

##########################################
# bond potentials

bond_style harmonic
bond_coeff 1 3 2        # sticker-hinge   (intra)
bond_coeff 2 3 2        # sticker-sticker (intra)
bond_coeff 3 3 2        # sticker-sticker (inter)
bond_coeff 4 3 2        # sticker-hinge   (inter)
bond_coeff 5 3 2        # hinge-hinge     (inter)


##########################################

# add brownian dynamics

fix 1 all nve                             # NVE integrator
fix 2 all langevin   1 1 2.0 ${seed}  # langevin thermostat
fix 2 all langevin   1 1 2.0 349503  

##########################################

# thermodynamic info

variable t equal step*${tstep}
variable t equal step*1

#thermo_style custom step temp
thermo ${Nwrite}   # print thermodynamic info every Nwrite steps
thermo 1000   

#dump 1 all atom ${Nwrite} output/dump.lammpstrj
#dump_modify 1 sort id
dump 2 all custom ${Nwrite} output/dump.lammpstrj id type mol x y z
dump 2 all custom 1000 output/dump.lammpstrj id type mol x y z
dump_modify 2 sort id

##########################################

# equilibration

pair_style soft 2.5
pair_coeff * * 10

velocity all create 1 203933 rot yes dist gaussian
#neigh_modify every 1 delay 2 check yes
#run 20000
minimize 1.0e-4 1.0e-6 100 1000

CITE-CITE-CITE-CITE-CITE-CITE-CITE-CITE-CITE-CITE-CITE-CITE-CITE

Your simulation uses code contributions which should be cited:

- Type Label Framework: https://doi.org/10.1021/acs.jpcb.3c08419

@Article{Gissinger24,
 author = {Jacob R. Gissinger, Ilia Nikiforov, Yaser Afshar, Brendon Waters, Moon-ki Choi, Daniel S. Karls, Alexander Stukowski, Wonpil Im, Hendrik Heinz, Axel Kohlmeyer, and Ellad B. Tadmor},
 title = {Type Label Framework for Bonded Force Fields in LAMMPS},
 journal = {J. Phys. Chem. B},
 year =    2024,
 volume =  128,
 number =  13,
 pages =   {3282--3297}
}

CITE-CITE-CITE-CITE-CITE-CITE-CITE-CITE-CITE-CITE-CITE-CITE-CITE

Generated 0 of 1 mixed pair_coeff terms from geometric mixing rule
WARNING: Communication cutoff 4.5 is shorter than a bond length based estimate of 5. This may lead to errors. (src/comm.cpp:743)
Neighbor list info ...
  update: every = 1 steps, delay = 0 steps, check = yes
  max neighbors/atom: 2000, page size: 100000
  master list distance cutoff = 4.5
  ghost atom cutoff = 4.5
  binsize = 2.25, bins = 89 89 89
  1 neighbor lists, perpetual/occasional/extra = 1 0 0
  (1) pair soft, perpetual
      attributes: half, newton on
      pair build: half/bin/newton
      stencil: half/bin/3d
      bin: standard
WARNING: Communication cutoff 4.5 is shorter than a bond length based estimate of 5. This may lead to errors. (src/comm.cpp:743)
WARNING: Inconsistent image flags
For more information see https://docs.lammps.org/err0027 (src/domain.cpp:1052)
WARNING: Bond/angle/dihedral extent > half of periodic box length (src/domain.cpp:1174)
Per MPI rank memory allocation (min/avg/max) = 9.019 | 9.019 | 9.019 Mbytes
   Step          Temp          E_pair         E_mol          TotEng         Press     
         0   1              5.2255754      47935420       47935429      -277969.57    
       100   1              45.100559      39689418       39689468      -230484.66    
WARNING: Bond/angle/dihedral extent > half of periodic box length (src/domain.cpp:1174)
Loop time of 0.00841046 on 1 procs for 100 steps with 1500 atoms

2127.1% CPU use with 1 MPI tasks x 1 OpenMP threads

Minimization stats:
  Stopping criterion = max iterations
  Energy initial, next-to-last, final = 
      47935424.9107613   39768072.0794875   39689463.1871899
  Force two-norm initial, final = 41540.843 37798.892
  Force max component initial, final = 1998.4498 1818.4502
  Final line search alpha, max atom move = 5.4937503e-05 0.099901113
  Iterations, force evaluations = 100 100

MPI task timing breakdown:
Section |  min time  |  avg time  |  max time  |%varavg| %total
---------------------------------------------------------------
Pair    | 0.00032187 | 0.00032187 | 0.00032187 |   0.0 |  3.83
Bond    | 0.001429   | 0.001429   | 0.001429   |   0.0 | 16.99
Neigh   | 0.003889   | 0.003889   | 0.003889   |   0.0 | 46.24
Comm    | 0.00015747 | 0.00015747 | 0.00015747 |   0.0 |  1.87
Output  | 3.8801e-05 | 3.8801e-05 | 3.8801e-05 |   0.0 |  0.46
Modify  | 0          | 0          | 0          |   0.0 |  0.00
Other   |            | 0.002574   |            |       | 30.61

Nlocal:           1500 ave        1500 max        1500 min
Histogram: 1 0 0 0 0 0 0 0 0 0
Nghost:              0 ave           0 max           0 min
Histogram: 1 0 0 0 0 0 0 0 0 0
Neighs:             65 ave          65 max          65 min
Histogram: 1 0 0 0 0 0 0 0 0 0

Total # of neighbors = 65
Ave neighs/atom = 0.043333333
Ave special neighs/atom = 2
Neighbor list builds = 12
Dangerous builds = 0

##########################################

# pair interactions
# shifted lj to be repulsive wca

pair_style lj/cut 4.0
pair_modify shift yes

pair_coeff * * 2.5 1.5

##########################################

# variables for bell equation

compute bondhinge hinges bond/local engpot
compute bondstic stickers bond/local engpot
variable bhinge equal c_bondhinge
variable bstic equal c_bondstic
compute ke_atom all ke/atom
variable ke atom c_ke_atom

variable ebarrier equal 100 # energy barrier

##########################################

# bond react

# the only intramolecular reaction is the unfolding process
# the intermolecular reactions are all bond formations between each atom type
fix rxn all bond/react stabilization no reset_mol_ids no   react unfolding all 1 3.0 4.5 folded unfolded map_three_bead molecule intra   react ssfu all 1 2.0 2.4 pre_ssfu post_ssfu intermoltemps/sticstic_inter.map molecule inter   react ssff all 1 2.0 2.4 pre_ssff post_ssff intermoltemps/sticstic_inter.map molecule inter   react ssuu all 1 2.0 2.4 pre_ssuu post_ssuu intermoltemps/sticstic_inter.map molecule inter   react hhfu all 1 2.0 2.4 pre_hhfu post_hhfu intermoltemps/hingehinge_inter.map molecule inter   react hhff all 1 2.0 2.4 pre_hhff post_hhff intermoltemps/hingehinge_inter.map molecule inter   react hhuu all 1 2.0 2.4 pre_hhuu post_hhuu intermoltemps/hingehinge_inter.map molecule inter   react ishfu all 1 2.0 2.4 pre_ishfu post_ishfu intermoltemps/instic_hinge_inter.map molecule inter   react ishff all 1 2.0 2.4 pre_ishff post_ishff intermoltemps/instic_hinge_inter.map molecule inter   react ishuu all 1 2.0 2.4 pre_ishuu post_ishuu intermoltemps/instic_hinge_inter.map molecule inter   react oshfu all 1 2.0 2.4 pre_oshfu post_oshfu intermoltemps/outstic_hinge_inter.map molecule inter   react oshff all 1 2.0 2.4 pre_oshff post_oshff intermoltemps/outstic_hinge_inter.map molecule inter   react oshuu all 1 2.0 2.4 pre_oshuu post_oshuu intermoltemps/outstic_hinge_inter.map molecule inter
dynamic group bond_react_MASTER_group defined

# keep track of bonds across the system

compute nbonds all count/type bond
variable shintra equal c_nbonds[1]
variable ssintra equal c_nbonds[2]
variable ssinter equal c_nbonds[3]
variable shinter equal c_nbonds[4]
variable hhinter equal c_nbonds[5]

# find separation of atoms for av. bond length

group firstatom id 1
1 atoms in group firstatom
group lastatom id 3
1 atoms in group lastatom

compute cfirst firstatom com
compute clast lastatom com
variable dx equal c_clast[1]-c_cfirst[1]
variable dy equal c_clast[2]-c_cfirst[2]
variable dz equal c_clast[3]-c_cfirst[3]

variable separation equal sqrt(v_dx*v_dx+v_dy*v_dy+v_dz*v_dz)

fix nbondsfile all print 1000 "${t} ${ssintra} ${ssinter} ${shinter} ${hhinter} " file output/nbonds.dat screen no

##########################################

# count bonds per atom

compute shintra all nbond/atom bond/type 1
compute ssintra all nbond/atom bond/type 2
compute ssinter all nbond/atom bond/type 3
compute shinter all nbond/atom bond/type 4
compute hhinter all nbond/atom bond/type 5

dump ssintrafile all custom 1000 output/ssintra.dump id type mol c_ssintra
dump_modify ssintrafile sort id
#fix ssintrafile all print 1000 "${t} ${ssperatom}" file output/ssintra.dat screen no

##########################################

# rdf

#compute myRDF all rdf 50
#fix rdf all ave/time 100 1 100 c_myRDF[*] file output/tmp.rdf mode vector

##########################################

# simulate

# minimize 1.0e-4 1.0e-6 1000 10000

timestep ${tstep}
timestep 1
#reset_timestep 0
neigh_modify every 1 delay 2 check yes

run ${Nsteps}
run 200000

CITE-CITE-CITE-CITE-CITE-CITE-CITE-CITE-CITE-CITE-CITE-CITE-CITE

Your simulation uses code contributions which should be cited:

- fix bond/react: reacter.org doi:10.1016/j.polymer.2017.09.038, doi:10.1021/acs.macromol.0c02012, doi:10.1016/j.cpc.2024.109287

@Article{Gissinger17,
 author = {J. R. Gissinger and B. D. Jensen and K. E. Wise},
 title = {Modeling Chemical Reactions in Classical Molecular Dynamics Simulations},
 journal = {Polymer},
 year =    2017,
 volume =  128,
 pages =   {211--217}
}

@Article{Gissinger20,
 author = {J. R. Gissinger, B. D. Jensen, K. E. Wise},
 title = {{REACTER}: A Heuristic Method for Reactive Molecular Dynamics},
 journal = {Macromolecules},
 year =    2020,
 volume =  53,
 number =  22,
 pages =   {9953--9961}
}

@Article{Gissinger24,
 author = {J. R. Gissinger, B. D. Jensen, K. E. Wise},
 title = {Molecular Modeling of Reactive Systems with REACTER},
 journal = {Computer Physics Communications},
 year =    2024,
 volume =  304,
 number =  109287
}

CITE-CITE-CITE-CITE-CITE-CITE-CITE-CITE-CITE-CITE-CITE-CITE-CITE

Generated 0 of 1 mixed pair_coeff terms from geometric mixing rule
Neighbor list info ...
  update: every = 1 steps, delay = 2 steps, check = yes
  max neighbors/atom: 2000, page size: 100000
  master list distance cutoff = 6
  ghost atom cutoff = 6
  binsize = 3, bins = 67 67 67
  2 neighbor lists, perpetual/occasional/extra = 1 1 0
  (1) pair lj/cut, perpetual
      attributes: half, newton on
      pair build: half/bin/newton
      stencil: half/bin/3d
      bin: standard
  (2) fix bond/react, occasional, copy from (1)
      attributes: half, newton on
      pair build: copy
      stencil: none
      bin: none
WARNING: Inconsistent image flags
For more information see https://docs.lammps.org/err0027 (src/domain.cpp:1052)
WARNING: Bond/angle/dihedral extent > half of periodic box length (src/domain.cpp:1174)
Per MPI rank memory allocation (min/avg/max) = 7.942 | 7.942 | 7.942 Mbytes
   Step          Temp          E_pair         E_mol          TotEng         Press     
       100   1             -1.5531599      39689418       39689421      -230484.13    
ERROR on proc 0: Atoms have moved too far apart (-13503.450284313974) for minimum image
 (src/REACTION/fix_bond_react.cpp:1263)
