LAMMPS config file for N 3 bead models

15 atoms
15 bonds
2 atom types
5 bond types

#Sim box size
-10 10 xlo xhi
-10 10 ylo yhi
-10 10 zlo zhi

Masses
#AtomID mass
1  1
2  1

Atoms
#atomID moleculeID atomType X Y Z
1 1 1 -0.7714342193779267 2.706259121999759 -3.6614704401305103 
2 1 2 1.2285657806220733 2.706259121999759 -3.6614704401305103 
3 1 1 2.2285657806220733 4.438309929568636 -3.6614704401305103 
4 2 1 -1.504020972079248 6.5668752619793 3.5819360557784012 
5 2 2 0.4959790279207521 6.5668752619793 3.5819360557784012 
6 2 1 1.495979027920752 8.298926069548177 3.5819360557784012 
7 3 1 3.258590634294574 8.24381236881701 5.0610081041289465 
8 3 2 2.7632790490666963 -2.678000271687421 -4.685291485922692 
9 3 1 6.163867940744327 -7.112005843250561 -4.142205389815244 
10 4 1 -3.6899214069468975 6.650480326618876 2.821085194921668 
11 4 2 -3.82330757222046 4.994239710161452 0.06715250822235141 
12 4 1 -0.09676544960087874 -3.051030670487499 -3.503773903402857 
13 5 1 -1.6038823890521883 -5.292266097710691 5.3753417770701954 
14 5 2 6.939567374553583 -5.657920856766068 1.7148130292747226 
15 5 1 -2.6635142639403355 -6.678843744837078 7.221894300988652 

Bonds
#bondID bondType particlesBonding
1 1 1 2 
2 1 2 3 
3 2 1 3 
4 1 4 5 
5 1 5 6 
6 2 4 6 
7 1 7 8 
8 1 8 9 
9 2 7 9 
10 1 10 11 
11 1 11 12 
12 2 10 12 
13 1 13 14 
14 1 14 15 
15 2 13 15 
