ITEM: TIMESTEP
1000
ITEM: NUMBER OF ENTRIES
21
ITEM: BOX BOUNDS pp pp pp
-1.0000000000000000e+01 1.0000000000000000e+01
-1.0000000000000000e+01 1.0000000000000000e+01
-1.0000000000000000e+01 1.0000000000000000e+01
ITEM: ENTRIES index c_bondenergy
1 0.0129008 
2 0.224918 
3 0.00111822 
4 0.348205 
5 0.0211649 
6 0.159412 
7 0.0292777 
8 0.000771855 
9 0.000722618 
10 0.32683 
11 0.451675 
12 0.0621315 
13 0.151879 
14 0.0261356 
15 0.168541 
16 6.09124 
17 71.7783 
18 1.06115 
19 85.8575 
20 0.00515435 
21 0.511208 
ITEM: TIMESTEP
2000
ITEM: NUMBER OF ENTRIES
20
ITEM: BOX BOUNDS pp pp pp
-1.0000000000000000e+01 1.0000000000000000e+01
-1.0000000000000000e+01 1.0000000000000000e+01
-1.0000000000000000e+01 1.0000000000000000e+01
ITEM: ENTRIES index c_bondenergy
1 0.0536897 
2 0.0261565 
3 0.394104 
4 0.011572 
5 0.27643 
6 0.402312 
7 0.0247015 
8 0.17736 
9 0.0157339 
10 0.146894 
11 0.495698 
12 0.274229 
13 0.0179543 
14 1.77696 
15 0.0310669 
16 0.000956672 
17 0.722129 
18 0.00146439 
19 0.00953664 
20 0.00487787 
ITEM: TIMESTEP
3000
ITEM: NUMBER OF ENTRIES
20
ITEM: BOX BOUNDS pp pp pp
-1.0000000000000000e+01 1.0000000000000000e+01
-1.0000000000000000e+01 1.0000000000000000e+01
-1.0000000000000000e+01 1.0000000000000000e+01
ITEM: ENTRIES index c_bondenergy
1 1.14982 
2 0.0452069 
3 0.188333 
4 0.122243 
5 0.303318 
6 0.000994583 
7 0.548375 
8 0.200003 
9 0.0913302 
10 0.342947 
11 0.259578 
12 0.230959 
13 0.316322 
14 0.000970283 
15 0.020139 
16 0.0444515 
17 25.8767 
18 36.0884 
19 0.000181296 
20 0.0882522 
ITEM: TIMESTEP
4000
ITEM: NUMBER OF ENTRIES
20
ITEM: BOX BOUNDS pp pp pp
-1.0000000000000000e+01 1.0000000000000000e+01
-1.0000000000000000e+01 1.0000000000000000e+01
-1.0000000000000000e+01 1.0000000000000000e+01
ITEM: ENTRIES index c_bondenergy
1 0.106688 
2 0.00714638 
3 0.257767 
4 0.000563218 
5 0.0332005 
6 1.6236 
7 0.0229845 
8 0.0409198 
9 0.00590059 
10 0.0782715 
11 0.141093 
12 0.188463 
13 3.00112e-05 
14 0.0659486 
15 0.161775 
16 0.529773 
17 0.0528812 
18 0.00109808 
19 0.00146555 
20 0.0264102 
ITEM: TIMESTEP
5000
ITEM: NUMBER OF ENTRIES
20
ITEM: BOX BOUNDS pp pp pp
-1.0000000000000000e+01 1.0000000000000000e+01
-1.0000000000000000e+01 1.0000000000000000e+01
-1.0000000000000000e+01 1.0000000000000000e+01
ITEM: ENTRIES index c_bondenergy
1 0.181084 
2 0.184451 
3 0.130072 
4 0.0421355 
5 0.113093 
6 0.0284887 
7 0.23813 
8 0.193063 
9 0.00979192 
10 0.194605 
11 0.0813614 
12 0.0819476 
13 0.298185 
14 0.0658757 
15 0.112542 
16 0.401125 
17 0.772072 
18 0.784731 
19 1.90583 
20 8.28443 
ITEM: TIMESTEP
6000
ITEM: NUMBER OF ENTRIES
20
ITEM: BOX BOUNDS pp pp pp
-1.0000000000000000e+01 1.0000000000000000e+01
-1.0000000000000000e+01 1.0000000000000000e+01
-1.0000000000000000e+01 1.0000000000000000e+01
ITEM: ENTRIES index c_bondenergy
1 0.0376926 
2 0.0262263 
3 0.0336854 
4 0.461835 
5 0.0472642 
6 0.152497 
7 0.475752 
8 0.0933332 
9 0.809816 
10 0.964487 
11 0.158085 
12 0.336719 
13 1.80907 
14 0.0161132 
15 0.163875 
16 0.561134 
17 0.199519 
18 0.623959 
19 1.1217 
20 0.59469 
ITEM: TIMESTEP
7000
ITEM: NUMBER OF ENTRIES
20
ITEM: BOX BOUNDS pp pp pp
-1.0000000000000000e+01 1.0000000000000000e+01
-1.0000000000000000e+01 1.0000000000000000e+01
-1.0000000000000000e+01 1.0000000000000000e+01
ITEM: ENTRIES index c_bondenergy
1 3.45907 
2 0.000114393 
3 0.409152 
4 0.835388 
5 0.0386753 
6 0.118779 
7 0.0524648 
8 0.0514403 
9 0.152227 
10 0.0378278 
11 0.83368 
12 0.318623 
13 0.927115 
14 0.0500164 
15 0.525879 
16 0.443716 
17 0.382779 
18 0.397912 
19 0.0319288 
20 0.0985571 
ITEM: TIMESTEP
8000
ITEM: NUMBER OF ENTRIES
20
ITEM: BOX BOUNDS pp pp pp
-1.0000000000000000e+01 1.0000000000000000e+01
-1.0000000000000000e+01 1.0000000000000000e+01
-1.0000000000000000e+01 1.0000000000000000e+01
ITEM: ENTRIES index c_bondenergy
1 0.928774 
2 0.219456 
3 0.0221792 
4 0.126649 
5 0.345775 
6 0.0542357 
7 0.909769 
8 0.118781 
9 0.00100007 
10 0.000237072 
11 0.113311 
12 0.524428 
13 0.00173849 
14 0.562177 
15 0.00298684 
16 0.346472 
17 1.12236 
18 0.884589 
19 0.474912 
20 0.167565 
ITEM: TIMESTEP
9000
ITEM: NUMBER OF ENTRIES
20
ITEM: BOX BOUNDS pp pp pp
-1.0000000000000000e+01 1.0000000000000000e+01
-1.0000000000000000e+01 1.0000000000000000e+01
-1.0000000000000000e+01 1.0000000000000000e+01
ITEM: ENTRIES index c_bondenergy
1 0.702424 
2 0.0080372 
3 0.0436886 
4 0.0800491 
5 0.0265875 
6 0.0210555 
7 0.501663 
8 0.0653055 
9 0.634055 
10 0.00232223 
11 0.911344 
12 0.204642 
13 0.000961107 
14 0.0686003 
15 0.0183522 
16 0.135713 
17 0.576461 
18 0.731267 
19 0.365235 
20 1.017 
ITEM: TIMESTEP
10000
ITEM: NUMBER OF ENTRIES
20
ITEM: BOX BOUNDS pp pp pp
-1.0000000000000000e+01 1.0000000000000000e+01
-1.0000000000000000e+01 1.0000000000000000e+01
-1.0000000000000000e+01 1.0000000000000000e+01
ITEM: ENTRIES index c_bondenergy
1 0.756829 
2 0.370854 
3 0.109101 
4 0.00138213 
5 0.789246 
6 0.105935 
7 0.175391 
8 0.128237 
9 0.637151 
10 0.140535 
11 0.0483888 
12 0.055195 
13 0.0707049 
14 0.0652124 
15 0.796252 
16 0.411451 
17 0.782875 
18 0.0199963 
19 0.830421 
20 1.18297 
ITEM: TIMESTEP
11000
ITEM: NUMBER OF ENTRIES
20
ITEM: BOX BOUNDS pp pp pp
-1.0000000000000000e+01 1.0000000000000000e+01
-1.0000000000000000e+01 1.0000000000000000e+01
-1.0000000000000000e+01 1.0000000000000000e+01
ITEM: ENTRIES index c_bondenergy
1 0.0319378 
2 0.374966 
3 0.32612 
4 1.0058e-06 
5 0.0129084 
6 0.0723356 
7 0.0107929 
8 0.157616 
9 2.45222e-05 
10 0.328824 
11 0.822374 
12 0.658915 
13 0.00142345 
14 0.0237432 
15 0.213712 
16 0.0227208 
17 0.0133095 
18 0.199499 
19 0.771601 
20 1.44621 
ITEM: TIMESTEP
12000
ITEM: NUMBER OF ENTRIES
20
ITEM: BOX BOUNDS pp pp pp
-1.0000000000000000e+01 1.0000000000000000e+01
-1.0000000000000000e+01 1.0000000000000000e+01
-1.0000000000000000e+01 1.0000000000000000e+01
ITEM: ENTRIES index c_bondenergy
1 0.120323 
2 0.00302393 
3 0.410601 
4 1.9544e-05 
5 0.189848 
6 0.599191 
7 0.392381 
8 0.0144348 
9 0.00080481 
10 0.247917 
11 0.156132 
12 0.0826412 
13 0.112862 
14 0.292965 
15 0.312115 
16 0.0364142 
17 0.031314 
18 0.416119 
19 0.267036 
20 0.362038 
ITEM: TIMESTEP
13000
ITEM: NUMBER OF ENTRIES
20
ITEM: BOX BOUNDS pp pp pp
-1.0000000000000000e+01 1.0000000000000000e+01
-1.0000000000000000e+01 1.0000000000000000e+01
-1.0000000000000000e+01 1.0000000000000000e+01
ITEM: ENTRIES index c_bondenergy
1 0.0531298 
2 0.097917 
3 0.0562092 
4 0.191389 
5 0.0630037 
6 0.0233494 
7 0.393132 
8 0.0125934 
9 0.278191 
10 2.84456e-05 
11 0.842178 
12 0.0418054 
13 0.137331 
14 0.442502 
15 0.332208 
16 0.864284 
17 0.237253 
18 0.198758 
19 0.177235 
20 0.0167497 
ITEM: TIMESTEP
14000
ITEM: NUMBER OF ENTRIES
20
ITEM: BOX BOUNDS pp pp pp
-1.0000000000000000e+01 1.0000000000000000e+01
-1.0000000000000000e+01 1.0000000000000000e+01
-1.0000000000000000e+01 1.0000000000000000e+01
ITEM: ENTRIES index c_bondenergy
1 0.00376047 
2 0.000190385 
3 0.109758 
4 0.00144997 
5 0.0658713 
6 0.00191961 
7 0.0805115 
8 0.960561 
9 0.37126 
10 0.107046 
11 0.124593 
12 0.687704 
13 0.317866 
14 0.294253 
15 0.0544744 
16 0.345872 
17 0.0747909 
18 0.0159249 
19 0.297609 
20 0.0667702 
ITEM: TIMESTEP
15000
ITEM: NUMBER OF ENTRIES
20
ITEM: BOX BOUNDS pp pp pp
-1.0000000000000000e+01 1.0000000000000000e+01
-1.0000000000000000e+01 1.0000000000000000e+01
-1.0000000000000000e+01 1.0000000000000000e+01
ITEM: ENTRIES index c_bondenergy
1 0.217772 
2 0.00501688 
3 0.0186442 
4 0.446442 
5 0.0642298 
6 0.428047 
7 0.0016195 
8 0.0237708 
9 0.117181 
10 0.000694152 
11 0.623677 
12 0.317558 
13 0.136696 
14 0.134751 
15 0.0185407 
16 0.0484179 
17 9.165e-06 
18 0.0542296 
19 0.97057 
20 0.724741 
ITEM: TIMESTEP
16000
ITEM: NUMBER OF ENTRIES
20
ITEM: BOX BOUNDS pp pp pp
-1.0000000000000000e+01 1.0000000000000000e+01
-1.0000000000000000e+01 1.0000000000000000e+01
-1.0000000000000000e+01 1.0000000000000000e+01
ITEM: ENTRIES index c_bondenergy
1 0.0258402 
2 0.00681315 
3 0.0512658 
4 0.0053609 
5 0.00748457 
6 0.00253929 
7 0.412515 
8 0.105799 
9 0.175183 
10 0.261632 
11 0.38535 
12 0.23042 
13 0.124717 
14 0.234785 
15 0.113157 
16 0.436249 
17 0.0710484 
18 0.364237 
19 0.000844205 
20 1.02614 
ITEM: TIMESTEP
17000
ITEM: NUMBER OF ENTRIES
20
ITEM: BOX BOUNDS pp pp pp
-1.0000000000000000e+01 1.0000000000000000e+01
-1.0000000000000000e+01 1.0000000000000000e+01
-1.0000000000000000e+01 1.0000000000000000e+01
ITEM: ENTRIES index c_bondenergy
1 0.792254 
2 0.00476944 
3 0.0564646 
4 0.0559455 
5 9.11441e-05 
6 0.0512338 
7 0.0122014 
8 0.268192 
9 1.20096 
10 0.0297578 
11 0.0244209 
12 0.368577 
13 0.425673 
14 0.0557498 
15 0.134412 
16 0.379622 
17 0.25825 
18 0.0159442 
19 0.902843 
20 0.538092 
ITEM: TIMESTEP
18000
ITEM: NUMBER OF ENTRIES
20
ITEM: BOX BOUNDS pp pp pp
-1.0000000000000000e+01 1.0000000000000000e+01
-1.0000000000000000e+01 1.0000000000000000e+01
-1.0000000000000000e+01 1.0000000000000000e+01
ITEM: ENTRIES index c_bondenergy
1 0.182875 
2 0.347014 
3 0.362968 
4 0.0109453 
5 0.00199647 
6 0.0434374 
7 0.267275 
8 0.0393149 
9 0.107927 
10 0.598235 
11 0.0613847 
12 0.0647089 
13 0.0181624 
14 0.216467 
15 0.259838 
16 0.169352 
17 0.00880311 
18 0.832002 
19 0.160012 
20 0.139354 
ITEM: TIMESTEP
19000
ITEM: NUMBER OF ENTRIES
20
ITEM: BOX BOUNDS pp pp pp
-1.0000000000000000e+01 1.0000000000000000e+01
-1.0000000000000000e+01 1.0000000000000000e+01
-1.0000000000000000e+01 1.0000000000000000e+01
ITEM: ENTRIES index c_bondenergy
1 0.000444408 
2 0.432035 
3 0.109783 
4 0.000109521 
5 0.110903 
6 0.373411 
7 0.00368475 
8 0.018165 
9 0.0403585 
10 0.165946 
11 0.496265 
12 0.0515204 
13 0.258435 
14 0.0267553 
15 0.964034 
16 0.415316 
17 0.0137973 
18 3.49272e-05 
19 0.014583 
20 0.0484153 
ITEM: TIMESTEP
20000
ITEM: NUMBER OF ENTRIES
20
ITEM: BOX BOUNDS pp pp pp
-1.0000000000000000e+01 1.0000000000000000e+01
-1.0000000000000000e+01 1.0000000000000000e+01
-1.0000000000000000e+01 1.0000000000000000e+01
ITEM: ENTRIES index c_bondenergy
1 0.216996 
2 0.374529 
3 0.403912 
4 0.122406 
5 0.142946 
6 0.0240257 
7 0.0137743 
8 0.00439159 
9 0.137556 
10 0.00277583 
11 0.00418791 
12 0.168566 
13 0.942067 
14 0.88522 
15 0.422726 
16 0.00601733 
17 0.152948 
18 0.140055 
19 0.15476 
20 0.0437565 
ITEM: TIMESTEP
21000
ITEM: NUMBER OF ENTRIES
20
ITEM: BOX BOUNDS pp pp pp
-1.0000000000000000e+01 1.0000000000000000e+01
-1.0000000000000000e+01 1.0000000000000000e+01
-1.0000000000000000e+01 1.0000000000000000e+01
ITEM: ENTRIES index c_bondenergy
1 0.0100065 
2 0.129319 
3 0.0716161 
4 0.0025762 
5 0.107403 
6 0.166509 
7 0.0745935 
8 0.00410702 
9 0.285013 
10 2.19199 
11 0.927801 
12 0.169388 
13 0.0421122 
14 0.080084 
15 0.00543993 
16 0.00325679 
17 0.0223434 
18 0.00155542 
19 0.0160168 
20 0.0940737 
ITEM: TIMESTEP
22000
ITEM: NUMBER OF ENTRIES
20
ITEM: BOX BOUNDS pp pp pp
-1.0000000000000000e+01 1.0000000000000000e+01
-1.0000000000000000e+01 1.0000000000000000e+01
-1.0000000000000000e+01 1.0000000000000000e+01
ITEM: ENTRIES index c_bondenergy
1 0.142313 
2 1.30364 
3 0.019315 
4 0.699902 
5 0.00239134 
6 0.232506 
7 0.0124157 
8 1.04243 
9 0.200018 
10 0.278251 
11 0.43466 
12 0.348654 
13 1.02507 
14 0.0729712 
15 0.819425 
16 0.324793 
17 0.0859777 
18 0.136649 
19 0.49183 
20 0.210912 
ITEM: TIMESTEP
23000
ITEM: NUMBER OF ENTRIES
20
ITEM: BOX BOUNDS pp pp pp
-1.0000000000000000e+01 1.0000000000000000e+01
-1.0000000000000000e+01 1.0000000000000000e+01
-1.0000000000000000e+01 1.0000000000000000e+01
ITEM: ENTRIES index c_bondenergy
1 0.272238 
2 0.319976 
3 0.0238052 
4 0.157939 
5 0.355607 
6 0.165372 
7 0.0131296 
8 1.08966 
9 0.0372976 
10 0.0153308 
11 0.0921419 
12 0.0119369 
13 0.0152104 
14 0.349738 
15 0.74233 
16 0.656307 
17 0.180896 
18 0.150723 
19 0.37112 
20 0.104072 
ITEM: TIMESTEP
24000
ITEM: NUMBER OF ENTRIES
20
ITEM: BOX BOUNDS pp pp pp
-1.0000000000000000e+01 1.0000000000000000e+01
-1.0000000000000000e+01 1.0000000000000000e+01
-1.0000000000000000e+01 1.0000000000000000e+01
ITEM: ENTRIES index c_bondenergy
1 2.06907 
2 0.0813776 
3 0.279415 
4 0.147897 
5 0.245155 
6 1.12509 
7 0.116891 
8 0.0456163 
9 0.0135055 
10 0.0460058 
11 0.00901023 
12 0.0321873 
13 0.159946 
14 1.04012 
15 0.452421 
16 0.0383444 
17 0.574234 
18 0.0708384 
19 0.459309 
20 0.67268 
ITEM: TIMESTEP
25000
ITEM: NUMBER OF ENTRIES
20
ITEM: BOX BOUNDS pp pp pp
-1.0000000000000000e+01 1.0000000000000000e+01
-1.0000000000000000e+01 1.0000000000000000e+01
-1.0000000000000000e+01 1.0000000000000000e+01
ITEM: ENTRIES index c_bondenergy
1 0.0121532 
2 0.124904 
3 0.0515256 
4 2.28131 
5 2.69982 
6 0.000617931 
7 0.00312025 
8 0.0521469 
9 0.00554107 
10 0.215819 
11 0.0118749 
12 0.0644402 
13 0.0546167 
14 0.115001 
15 0.375727 
16 0.974424 
17 0.28837 
18 0.863756 
19 0.262076 
20 2.58252 
ITEM: TIMESTEP
26000
ITEM: NUMBER OF ENTRIES
20
ITEM: BOX BOUNDS pp pp pp
-1.0000000000000000e+01 1.0000000000000000e+01
-1.0000000000000000e+01 1.0000000000000000e+01
-1.0000000000000000e+01 1.0000000000000000e+01
ITEM: ENTRIES index c_bondenergy
1 0.0407028 
2 0.734646 
3 0.230698 
4 0.392068 
5 0.345968 
6 0.282967 
7 0.267876 
8 1.1962 
9 0.00568181 
10 0.235819 
11 0.0261159 
12 0.276313 
13 0.0367391 
14 0.935784 
15 0.650071 
16 0.0769705 
17 0.247748 
18 1.14074 
19 0.000139552 
20 0.0212046 
ITEM: TIMESTEP
27000
ITEM: NUMBER OF ENTRIES
20
ITEM: BOX BOUNDS pp pp pp
-1.0000000000000000e+01 1.0000000000000000e+01
-1.0000000000000000e+01 1.0000000000000000e+01
-1.0000000000000000e+01 1.0000000000000000e+01
ITEM: ENTRIES index c_bondenergy
1 0.793701 
2 0.12611 
3 0.271365 
4 0.105799 
5 0.00496422 
6 0.0060022 
7 0.793223 
8 0.00445374 
9 0.0884641 
10 0.147703 
11 0.0857631 
12 0.00073862 
13 0.0885885 
14 0.125012 
15 0.00170815 
16 0.000140005 
17 0.0531036 
18 0.0521989 
19 1.75445 
20 0.00350009 
ITEM: TIMESTEP
28000
ITEM: NUMBER OF ENTRIES
20
ITEM: BOX BOUNDS pp pp pp
-1.0000000000000000e+01 1.0000000000000000e+01
-1.0000000000000000e+01 1.0000000000000000e+01
-1.0000000000000000e+01 1.0000000000000000e+01
ITEM: ENTRIES index c_bondenergy
1 0.0131368 
2 0.174124 
3 0.0146939 
4 0.046043 
5 0.0057535 
6 0.2688 
7 0.347372 
8 0.459982 
9 0.290742 
10 0.212915 
11 0.10402 
12 2.5957 
13 0.0322479 
14 0.0433036 
15 0.0265818 
16 0.160391 
17 0.0960744 
18 0.862003 
19 6.22368e-05 
20 1.03658e-05 
ITEM: TIMESTEP
29000
ITEM: NUMBER OF ENTRIES
20
ITEM: BOX BOUNDS pp pp pp
-1.0000000000000000e+01 1.0000000000000000e+01
-1.0000000000000000e+01 1.0000000000000000e+01
-1.0000000000000000e+01 1.0000000000000000e+01
ITEM: ENTRIES index c_bondenergy
1 0.160905 
2 0.888254 
3 0.148772 
4 0.0278211 
5 3.74865e-05 
6 0.477767 
7 0.747678 
8 0.00720136 
9 0.0123262 
10 0.0799316 
11 0.0297125 
12 0.0338773 
13 0.172696 
14 0.172202 
15 0.613414 
16 0.00267743 
17 0.176878 
18 0.112577 
19 1.0237 
20 0.115618 
ITEM: TIMESTEP
30000
ITEM: NUMBER OF ENTRIES
20
ITEM: BOX BOUNDS pp pp pp
-1.0000000000000000e+01 1.0000000000000000e+01
-1.0000000000000000e+01 1.0000000000000000e+01
-1.0000000000000000e+01 1.0000000000000000e+01
ITEM: ENTRIES index c_bondenergy
1 0.410844 
2 0.643068 
3 0.0747485 
4 0.0397064 
5 0.0071645 
6 0.0351997 
7 0.0552014 
8 0.162659 
9 0.483289 
10 0.751076 
11 0.00982634 
12 0.134745 
13 0.0027232 
14 0.00176389 
15 0.00759684 
16 0.32295 
17 1.10848 
18 0.0022073 
19 0.197163 
20 0.638753 
ITEM: TIMESTEP
31000
ITEM: NUMBER OF ENTRIES
20
ITEM: BOX BOUNDS pp pp pp
-1.0000000000000000e+01 1.0000000000000000e+01
-1.0000000000000000e+01 1.0000000000000000e+01
-1.0000000000000000e+01 1.0000000000000000e+01
ITEM: ENTRIES index c_bondenergy
1 0.044018 
2 0.111205 
3 0.0269141 
4 0.0948909 
5 0.0494321 
6 0.0995241 
7 0.0671756 
8 0.000654556 
9 0.0460244 
10 0.0157989 
11 0.0076899 
12 0.0521752 
13 0.0304703 
14 0.00341327 
15 0.142256 
16 0.00147542 
17 0.0103826 
18 0.00154294 
19 0.150186 
20 0.364204 
ITEM: TIMESTEP
32000
ITEM: NUMBER OF ENTRIES
20
ITEM: BOX BOUNDS pp pp pp
-1.0000000000000000e+01 1.0000000000000000e+01
-1.0000000000000000e+01 1.0000000000000000e+01
-1.0000000000000000e+01 1.0000000000000000e+01
ITEM: ENTRIES index c_bondenergy
1 0.00671943 
2 0.305705 
3 0.0191922 
4 0.503965 
5 1.78841 
6 0.062639 
7 0.0540849 
8 0.00369902 
9 0.524542 
10 0.432392 
11 0.289003 
12 0.00870006 
13 0.110993 
14 0.0110605 
15 0.0507843 
16 0.00847989 
17 1.47105 
18 0.658478 
19 0.290419 
20 0.00283943 
ITEM: TIMESTEP
33000
ITEM: NUMBER OF ENTRIES
20
ITEM: BOX BOUNDS pp pp pp
-1.0000000000000000e+01 1.0000000000000000e+01
-1.0000000000000000e+01 1.0000000000000000e+01
-1.0000000000000000e+01 1.0000000000000000e+01
ITEM: ENTRIES index c_bondenergy
1 0.123273 
2 0.00859384 
3 0.0217177 
4 0.264595 
5 0.0855958 
6 0.0011679 
7 0.000217645 
8 0.322833 
9 0.0980227 
10 0.231433 
11 0.0998836 
12 0.0462989 
13 0.0226779 
14 0.470377 
15 0.023125 
16 0.108257 
17 0.114465 
18 0.314019 
19 0.0229152 
20 1.23341 
ITEM: TIMESTEP
34000
ITEM: NUMBER OF ENTRIES
20
ITEM: BOX BOUNDS pp pp pp
-1.0000000000000000e+01 1.0000000000000000e+01
-1.0000000000000000e+01 1.0000000000000000e+01
-1.0000000000000000e+01 1.0000000000000000e+01
ITEM: ENTRIES index c_bondenergy
1 0.183832 
2 0.306637 
3 0.00389204 
4 0.00826464 
5 0.445677 
6 0.154573 
7 0.0939437 
8 0.178949 
9 0.471132 
10 0.0812576 
11 0.0281011 
12 0.00118035 
13 0.191145 
14 0.066124 
15 0.00153346 
16 0.466183 
17 0.318264 
18 0.00578694 
19 0.0148664 
20 0.00227741 
ITEM: TIMESTEP
35000
ITEM: NUMBER OF ENTRIES
20
ITEM: BOX BOUNDS pp pp pp
-1.0000000000000000e+01 1.0000000000000000e+01
-1.0000000000000000e+01 1.0000000000000000e+01
-1.0000000000000000e+01 1.0000000000000000e+01
ITEM: ENTRIES index c_bondenergy
1 0.136422 
2 0.56367 
3 0.00821273 
4 0.100871 
5 0.000419679 
6 0.13074 
7 0.00259415 
8 0.0666943 
9 0.00518267 
10 0.232914 
11 0.081893 
12 0.676975 
13 0.00375346 
14 0.00219616 
15 0.00834129 
16 0.023428 
17 0.395238 
18 0.914034 
19 0.00863696 
20 0.0942963 
ITEM: TIMESTEP
36000
ITEM: NUMBER OF ENTRIES
20
ITEM: BOX BOUNDS pp pp pp
-1.0000000000000000e+01 1.0000000000000000e+01
-1.0000000000000000e+01 1.0000000000000000e+01
-1.0000000000000000e+01 1.0000000000000000e+01
ITEM: ENTRIES index c_bondenergy
1 0.000112725 
2 0.0121204 
3 0.000600177 
4 0.00696404 
5 0.00334689 
6 0.164134 
7 0.00829085 
8 0.00235419 
9 1.39147 
10 0.0501489 
11 0.406908 
12 0.0105823 
13 0.034378 
14 0.0253493 
15 0.999046 
16 0.538966 
17 0.0710056 
18 0.300968 
19 0.212253 
20 0.0207835 
ITEM: TIMESTEP
37000
ITEM: NUMBER OF ENTRIES
20
ITEM: BOX BOUNDS pp pp pp
-1.0000000000000000e+01 1.0000000000000000e+01
-1.0000000000000000e+01 1.0000000000000000e+01
-1.0000000000000000e+01 1.0000000000000000e+01
ITEM: ENTRIES index c_bondenergy
1 0.389546 
2 0.0112077 
3 0.094242 
4 0.0268286 
5 0.00152229 
6 0.0971077 
7 0.0232198 
8 0.300706 
9 0.0817734 
10 0.127199 
11 0.204079 
12 0.00031266 
13 0.0471532 
14 0.106354 
15 0.48843 
16 0.0344902 
17 0.632054 
18 0.65112 
19 0.378325 
20 0.314753 
ITEM: TIMESTEP
38000
ITEM: NUMBER OF ENTRIES
20
ITEM: BOX BOUNDS pp pp pp
-1.0000000000000000e+01 1.0000000000000000e+01
-1.0000000000000000e+01 1.0000000000000000e+01
-1.0000000000000000e+01 1.0000000000000000e+01
ITEM: ENTRIES index c_bondenergy
1 0.223372 
2 1.26003 
3 0.145478 
4 0.000719716 
5 0.311703 
6 0.0466492 
7 0.192847 
8 0.0307941 
9 0.0631311 
10 0.0939057 
11 0.0746441 
12 0.0821777 
13 0.111885 
14 0.00360604 
15 1.047 
16 0.00611942 
17 0.26206 
18 0.0559075 
19 0.0846514 
20 0.67927 
ITEM: TIMESTEP
39000
ITEM: NUMBER OF ENTRIES
20
ITEM: BOX BOUNDS pp pp pp
-1.0000000000000000e+01 1.0000000000000000e+01
-1.0000000000000000e+01 1.0000000000000000e+01
-1.0000000000000000e+01 1.0000000000000000e+01
ITEM: ENTRIES index c_bondenergy
1 0.688519 
2 0.0508635 
3 0.000179086 
4 0.00460836 
5 0.0281836 
6 0.257555 
7 0.0204654 
8 0.122967 
9 0.00896944 
10 0.0660064 
11 0.0135192 
12 0.0504757 
13 0.182731 
14 0.108718 
15 0.0591907 
16 0.0170362 
17 1.14407 
18 0.47527 
19 0.157459 
20 0.0814541 
ITEM: TIMESTEP
40000
ITEM: NUMBER OF ENTRIES
20
ITEM: BOX BOUNDS pp pp pp
-1.0000000000000000e+01 1.0000000000000000e+01
-1.0000000000000000e+01 1.0000000000000000e+01
-1.0000000000000000e+01 1.0000000000000000e+01
ITEM: ENTRIES index c_bondenergy
1 0.5872 
2 0.0736266 
3 0.322304 
4 0.00934229 
5 0.219037 
6 0.0179415 
7 0.0351632 
8 0.276741 
9 0.180361 
10 0.677848 
11 0.126966 
12 0.000391715 
13 0.186927 
14 0.00302714 
15 0.241747 
16 0.0194432 
17 1.33881 
18 2.57669e-05 
19 0.105287 
20 0.0208248 
ITEM: TIMESTEP
41000
ITEM: NUMBER OF ENTRIES
20
ITEM: BOX BOUNDS pp pp pp
-1.0000000000000000e+01 1.0000000000000000e+01
-1.0000000000000000e+01 1.0000000000000000e+01
-1.0000000000000000e+01 1.0000000000000000e+01
ITEM: ENTRIES index c_bondenergy
1 0.345135 
2 0.107266 
3 0.00470523 
4 0.0747315 
5 0.0166808 
6 0.0677503 
7 0.0167573 
8 0.0121808 
9 0.0444908 
10 0.194366 
11 0.0816854 
12 6.70926e-05 
13 0.168032 
14 0.0110888 
15 0.00858991 
16 0.614641 
17 0.14624 
18 0.000853308 
19 0.146022 
20 0.0115151 
ITEM: TIMESTEP
42000
ITEM: NUMBER OF ENTRIES
20
ITEM: BOX BOUNDS pp pp pp
-1.0000000000000000e+01 1.0000000000000000e+01
-1.0000000000000000e+01 1.0000000000000000e+01
-1.0000000000000000e+01 1.0000000000000000e+01
ITEM: ENTRIES index c_bondenergy
1 0.157973 
2 0.409893 
3 0.0940668 
4 0.132852 
5 0.0155472 
6 0.0499666 
7 0.000131757 
8 0.00253827 
9 0.0664873 
10 0.498002 
11 0.167043 
12 0.339541 
13 0.0321441 
14 0.0511995 
15 0.022826 
16 0.01886 
17 0.448251 
18 0.42794 
19 0.425327 
20 0.0295792 
ITEM: TIMESTEP
43000
ITEM: NUMBER OF ENTRIES
20
ITEM: BOX BOUNDS pp pp pp
-1.0000000000000000e+01 1.0000000000000000e+01
-1.0000000000000000e+01 1.0000000000000000e+01
-1.0000000000000000e+01 1.0000000000000000e+01
ITEM: ENTRIES index c_bondenergy
1 0.00182308 
2 0.0201151 
3 8.55289e-05 
4 0.39069 
5 0.0383466 
6 0.0412905 
7 0.00378611 
8 0.000223408 
9 0.0104998 
10 0.714841 
11 0.395223 
12 0.00312012 
13 0.226297 
14 0.00979185 
15 0.0317547 
16 0.154751 
17 0.0378921 
18 0.456866 
19 0.302676 
20 0.371705 
ITEM: TIMESTEP
44000
ITEM: NUMBER OF ENTRIES
20
ITEM: BOX BOUNDS pp pp pp
-1.0000000000000000e+01 1.0000000000000000e+01
-1.0000000000000000e+01 1.0000000000000000e+01
-1.0000000000000000e+01 1.0000000000000000e+01
ITEM: ENTRIES index c_bondenergy
1 0.157404 
2 0.000321602 
3 0.516109 
4 0.0852561 
5 0.265847 
6 0.3809 
7 0.00681155 
8 0.00155625 
9 0.0312988 
10 0.398045 
11 0.236775 
12 1.19235 
13 0.15677 
14 0.00226446 
15 0.496487 
16 0.0076918 
17 0.889326 
18 0.2092 
19 0.0281405 
20 0.000515462 
ITEM: TIMESTEP
45000
ITEM: NUMBER OF ENTRIES
20
ITEM: BOX BOUNDS pp pp pp
-1.0000000000000000e+01 1.0000000000000000e+01
-1.0000000000000000e+01 1.0000000000000000e+01
-1.0000000000000000e+01 1.0000000000000000e+01
ITEM: ENTRIES index c_bondenergy
1 0.0401988 
2 0.00417751 
3 0.850332 
4 0.349579 
5 0.0189036 
6 0.0265066 
7 0.011108 
8 0.500417 
9 0.578837 
10 0.0328319 
11 0.0158898 
12 0.0499746 
13 0.840207 
14 0.604305 
15 0.0780381 
16 0.00181246 
17 0.553488 
18 0.231299 
19 0.0266857 
20 0.407544 
ITEM: TIMESTEP
46000
ITEM: NUMBER OF ENTRIES
20
ITEM: BOX BOUNDS pp pp pp
-1.0000000000000000e+01 1.0000000000000000e+01
-1.0000000000000000e+01 1.0000000000000000e+01
-1.0000000000000000e+01 1.0000000000000000e+01
ITEM: ENTRIES index c_bondenergy
1 0.139712 
2 0.00878142 
3 0.021662 
4 0.0952963 
5 0.000645632 
6 0.033974 
7 0.111394 
8 4.83433e-05 
9 0.0841496 
10 0.584487 
11 0.76013 
12 0.265909 
13 0.261989 
14 0.614233 
15 1.19583 
16 0.005483 
17 0.145481 
18 0.596078 
19 0.00926923 
20 0.076969 
ITEM: TIMESTEP
47000
ITEM: NUMBER OF ENTRIES
20
ITEM: BOX BOUNDS pp pp pp
-1.0000000000000000e+01 1.0000000000000000e+01
-1.0000000000000000e+01 1.0000000000000000e+01
-1.0000000000000000e+01 1.0000000000000000e+01
ITEM: ENTRIES index c_bondenergy
1 0.504455 
2 0.0161106 
3 0.000665753 
4 0.0228276 
5 0.011432 
6 0.144349 
7 1.43773 
8 0.0758222 
9 0.00314592 
10 0.397311 
11 0.0974933 
12 0.21399 
13 0.510791 
14 0.0278505 
15 0.0289615 
16 0.00683961 
17 0.340224 
18 0.0193096 
19 0.00614444 
20 0.588062 
ITEM: TIMESTEP
48000
ITEM: NUMBER OF ENTRIES
20
ITEM: BOX BOUNDS pp pp pp
-1.0000000000000000e+01 1.0000000000000000e+01
-1.0000000000000000e+01 1.0000000000000000e+01
-1.0000000000000000e+01 1.0000000000000000e+01
ITEM: ENTRIES index c_bondenergy
1 0.0286251 
2 0.199682 
3 0.332993 
4 0.0213563 
5 0.000323774 
6 0.0444542 
7 0.00821204 
8 0.398209 
9 0.133784 
10 0.910908 
11 0.00121335 
12 0.0214429 
13 0.165173 
14 0.111253 
15 0.122908 
16 0.00106591 
17 0.0657479 
18 0.00153667 
19 0.134789 
20 0.222972 
ITEM: TIMESTEP
49000
ITEM: NUMBER OF ENTRIES
20
ITEM: BOX BOUNDS pp pp pp
-1.0000000000000000e+01 1.0000000000000000e+01
-1.0000000000000000e+01 1.0000000000000000e+01
-1.0000000000000000e+01 1.0000000000000000e+01
ITEM: ENTRIES index c_bondenergy
1 0.129009 
2 0.00834345 
3 1.58176 
4 0.104944 
5 0.102289 
6 0.0268304 
7 0.00321913 
8 0.15591 
9 0.185919 
10 0.172153 
11 0.00544476 
12 0.0791297 
13 0.0737731 
14 0.00870357 
15 0.000200252 
16 0.00864203 
17 0.638298 
18 0.0350363 
19 0.16864 
20 0.14089 
ITEM: TIMESTEP
50000
ITEM: NUMBER OF ENTRIES
20
ITEM: BOX BOUNDS pp pp pp
-1.0000000000000000e+01 1.0000000000000000e+01
-1.0000000000000000e+01 1.0000000000000000e+01
-1.0000000000000000e+01 1.0000000000000000e+01
ITEM: ENTRIES index c_bondenergy
1 0.485563 
2 0.137318 
3 0.0166239 
4 0.000314433 
5 0.0545617 
6 0.0515187 
7 0.00296566 
8 0.00577554 
9 0.124453 
10 0.000267723 
11 0.4322 
12 0.00892371 
13 0.0224118 
14 0.209535 
15 0.136696 
16 2.38513 
17 0.0793345 
18 0.754763 
19 0.23888 
20 0.00928116 
ITEM: TIMESTEP
51000
ITEM: NUMBER OF ENTRIES
20
ITEM: BOX BOUNDS pp pp pp
-1.0000000000000000e+01 1.0000000000000000e+01
-1.0000000000000000e+01 1.0000000000000000e+01
-1.0000000000000000e+01 1.0000000000000000e+01
ITEM: ENTRIES index c_bondenergy
1 0.695511 
2 0.03862 
3 0.000538063 
4 0.0046772 
5 0.0607969 
6 0.0243547 
7 0.402731 
8 1.88299e-05 
9 0.134926 
10 0.0566542 
11 0.000790019 
12 0.043068 
13 0.0016611 
14 0.595965 
15 0.0592907 
16 0.0117262 
17 0.52246 
18 0.54716 
19 0.00416549 
20 0.00118221 
ITEM: TIMESTEP
52000
ITEM: NUMBER OF ENTRIES
20
ITEM: BOX BOUNDS pp pp pp
-1.0000000000000000e+01 1.0000000000000000e+01
-1.0000000000000000e+01 1.0000000000000000e+01
-1.0000000000000000e+01 1.0000000000000000e+01
ITEM: ENTRIES index c_bondenergy
1 0.00553701 
2 0.0214487 
3 0.000355753 
4 0.226984 
5 0.0499064 
6 0.383078 
7 1.55563e-08 
8 0.430666 
9 0.00253467 
10 0.000569078 
11 0.0106323 
12 0.00680619 
13 0.11168 
14 0.229401 
15 0.00617943 
16 0.00370295 
17 0.206375 
18 0.0103509 
19 0.605585 
20 0.258446 
ITEM: TIMESTEP
53000
ITEM: NUMBER OF ENTRIES
20
ITEM: BOX BOUNDS pp pp pp
-1.0000000000000000e+01 1.0000000000000000e+01
-1.0000000000000000e+01 1.0000000000000000e+01
-1.0000000000000000e+01 1.0000000000000000e+01
ITEM: ENTRIES index c_bondenergy
1 0.00731362 
2 0.045394 
3 0.123067 
4 0.000825969 
5 0.0723272 
6 0.000690326 
7 0.0767947 
8 0.000633311 
9 0.0895261 
10 0.00229564 
11 0.00776579 
12 0.000128736 
13 0.0506931 
14 0.0999073 
15 0.0703563 
16 0.0295579 
17 0.0157809 
18 0.00209227 
19 0.111293 
20 0.00012696 
ITEM: TIMESTEP
54000
ITEM: NUMBER OF ENTRIES
20
ITEM: BOX BOUNDS pp pp pp
-1.0000000000000000e+01 1.0000000000000000e+01
-1.0000000000000000e+01 1.0000000000000000e+01
-1.0000000000000000e+01 1.0000000000000000e+01
ITEM: ENTRIES index c_bondenergy
1 0.273823 
2 0.00415802 
3 0.016883 
4 0.00150163 
5 0.0505819 
6 0.117766 
7 0.0326074 
8 0.882898 
9 0.0023177 
10 0.0106884 
11 0.00802592 
12 0.203925 
13 0.0278492 
14 0.0573632 
15 0.315872 
16 0.0118055 
17 0.00998516 
18 0.0157904 
19 0.0424318 
20 0.0399545 
ITEM: TIMESTEP
55000
ITEM: NUMBER OF ENTRIES
20
ITEM: BOX BOUNDS pp pp pp
-1.0000000000000000e+01 1.0000000000000000e+01
-1.0000000000000000e+01 1.0000000000000000e+01
-1.0000000000000000e+01 1.0000000000000000e+01
ITEM: ENTRIES index c_bondenergy
1 0.00799266 
2 0.169831 
3 0.165233 
4 0.000229615 
5 0.000137026 
6 0.126567 
7 0.0164976 
8 0.010945 
9 0.0757058 
10 0.00288631 
11 0.108902 
12 0.0849604 
13 0.00147141 
14 0.00333965 
15 0.0515494 
16 0.000904987 
17 0.0201901 
18 0.149551 
19 0.112497 
20 0.00414348 
ITEM: TIMESTEP
56000
ITEM: NUMBER OF ENTRIES
20
ITEM: BOX BOUNDS pp pp pp
-1.0000000000000000e+01 1.0000000000000000e+01
-1.0000000000000000e+01 1.0000000000000000e+01
-1.0000000000000000e+01 1.0000000000000000e+01
ITEM: ENTRIES index c_bondenergy
1 0.0402572 
2 1.07667 
3 0.00117016 
4 0.764788 
5 0.32414 
6 0.170831 
7 0.24319 
8 0.323657 
9 0.0478454 
10 0.0879928 
11 0.00355077 
12 0.000374985 
13 0.00043439 
14 0.0270773 
15 0.00698026 
16 0.0131335 
17 0.202276 
18 0.905151 
19 0.0212511 
20 0.130859 
ITEM: TIMESTEP
57000
ITEM: NUMBER OF ENTRIES
20
ITEM: BOX BOUNDS pp pp pp
-1.0000000000000000e+01 1.0000000000000000e+01
-1.0000000000000000e+01 1.0000000000000000e+01
-1.0000000000000000e+01 1.0000000000000000e+01
ITEM: ENTRIES index c_bondenergy
1 0.000475736 
2 0.0516498 
3 0.00223174 
4 0.15863 
5 0.0358204 
6 0.0285168 
7 0.00221246 
8 0.0370492 
9 0.0319487 
10 0.198641 
11 0.0187018 
12 0.0430209 
13 0.0395621 
14 0.0833126 
15 0.0258971 
16 0.419129 
17 0.180776 
18 0.0418674 
19 0.28521 
20 0.102302 
ITEM: TIMESTEP
58000
ITEM: NUMBER OF ENTRIES
20
ITEM: BOX BOUNDS pp pp pp
-1.0000000000000000e+01 1.0000000000000000e+01
-1.0000000000000000e+01 1.0000000000000000e+01
-1.0000000000000000e+01 1.0000000000000000e+01
ITEM: ENTRIES index c_bondenergy
1 0.0976657 
2 0.078155 
3 0.108204 
4 0.299793 
5 0.0118116 
6 0.0670366 
7 0.00820156 
8 0.020875 
9 0.0289826 
10 0.0136066 
11 0.0568756 
12 0.187298 
13 0.000410137 
14 0.110908 
15 0.00278238 
16 0.246107 
17 0.0731155 
18 0.0207142 
19 0.313411 
20 0.122858 
ITEM: TIMESTEP
59000
ITEM: NUMBER OF ENTRIES
20
ITEM: BOX BOUNDS pp pp pp
-1.0000000000000000e+01 1.0000000000000000e+01
-1.0000000000000000e+01 1.0000000000000000e+01
-1.0000000000000000e+01 1.0000000000000000e+01
ITEM: ENTRIES index c_bondenergy
1 0.0452317 
2 0.105321 
3 0.0152699 
4 0.0617874 
5 0.0734206 
6 0.00198793 
7 0.111171 
8 0.0297198 
9 0.0171855 
10 0.0443349 
11 0.0318245 
12 0.037867 
13 0.153339 
14 0.0958832 
15 0.00908827 
16 0.00307546 
17 0.0446901 
18 0.141865 
19 0.604477 
20 0.0503111 
ITEM: TIMESTEP
60000
ITEM: NUMBER OF ENTRIES
20
ITEM: BOX BOUNDS pp pp pp
-1.0000000000000000e+01 1.0000000000000000e+01
-1.0000000000000000e+01 1.0000000000000000e+01
-1.0000000000000000e+01 1.0000000000000000e+01
ITEM: ENTRIES index c_bondenergy
1 0.232774 
2 0.151026 
3 0.0116481 
4 0.0223865 
5 0.922375 
6 0.208198 
7 0.0110448 
8 0.23376 
9 0.00677847 
10 0.113963 
11 0.159833 
12 0.34125 
13 0.465704 
14 0.000748111 
15 0.406823 
16 0.0911125 
17 0.00654529 
18 0.0696158 
19 0.163473 
20 0.0859402 
ITEM: TIMESTEP
61000
ITEM: NUMBER OF ENTRIES
20
ITEM: BOX BOUNDS pp pp pp
-1.0000000000000000e+01 1.0000000000000000e+01
-1.0000000000000000e+01 1.0000000000000000e+01
-1.0000000000000000e+01 1.0000000000000000e+01
ITEM: ENTRIES index c_bondenergy
1 0.172348 
2 0.0927879 
3 0.00129681 
4 0.355583 
5 0.441663 
6 0.0149579 
7 0.000414122 
8 0.465418 
9 0.0159178 
10 0.0226828 
11 0.000226741 
12 0.0677577 
13 0.0379128 
14 0.00534164 
15 0.00568017 
16 0.000286701 
17 0.208542 
18 0.123448 
19 0.381141 
20 6.91554e-05 
ITEM: TIMESTEP
62000
ITEM: NUMBER OF ENTRIES
20
ITEM: BOX BOUNDS pp pp pp
-1.0000000000000000e+01 1.0000000000000000e+01
-1.0000000000000000e+01 1.0000000000000000e+01
-1.0000000000000000e+01 1.0000000000000000e+01
ITEM: ENTRIES index c_bondenergy
1 0.433883 
2 0.0186285 
3 0.220994 
4 0.219555 
5 0.5687 
6 0.190248 
7 0.305824 
8 0.361328 
9 0.0455215 
10 0.0394881 
11 0.147541 
12 0.00914332 
13 0.0415354 
14 0.127212 
15 0.00384412 
16 0.00140776 
17 0.361577 
18 0.434932 
19 0.00795002 
20 0.0303383 
ITEM: TIMESTEP
63000
ITEM: NUMBER OF ENTRIES
20
ITEM: BOX BOUNDS pp pp pp
-1.0000000000000000e+01 1.0000000000000000e+01
-1.0000000000000000e+01 1.0000000000000000e+01
-1.0000000000000000e+01 1.0000000000000000e+01
ITEM: ENTRIES index c_bondenergy
1 0.981003 
2 0.0108035 
3 0.128314 
4 0.0275687 
5 0.169468 
6 0.041039 
7 0.330446 
8 0.162435 
9 0.0160858 
10 0.000232041 
11 0.0443382 
12 0.00868608 
13 0.00822449 
14 0.0046131 
15 0.0082574 
16 0.0245354 
17 0.67374 
18 0.315718 
19 0.0639625 
20 0.101323 
ITEM: TIMESTEP
64000
ITEM: NUMBER OF ENTRIES
20
ITEM: BOX BOUNDS pp pp pp
-1.0000000000000000e+01 1.0000000000000000e+01
-1.0000000000000000e+01 1.0000000000000000e+01
-1.0000000000000000e+01 1.0000000000000000e+01
ITEM: ENTRIES index c_bondenergy
1 0.315792 
2 0.0526662 
3 0.256124 
4 0.183556 
5 0.0144698 
6 0.0159637 
7 0.0115815 
8 0.108533 
9 0.0802499 
10 0.0287245 
11 0.00257607 
12 0.0636281 
13 0.0871434 
14 0.128168 
15 0.00538465 
16 0.0286676 
17 0.00359993 
18 0.0287628 
19 0.254911 
20 0.24081 
ITEM: TIMESTEP
65000
ITEM: NUMBER OF ENTRIES
20
ITEM: BOX BOUNDS pp pp pp
-1.0000000000000000e+01 1.0000000000000000e+01
-1.0000000000000000e+01 1.0000000000000000e+01
-1.0000000000000000e+01 1.0000000000000000e+01
ITEM: ENTRIES index c_bondenergy
1 0.62799 
2 0.0116391 
3 0.0488729 
4 0.0214268 
5 0.0192881 
6 0.0292884 
7 0.216363 
8 0.125234 
9 0.00136415 
10 0.0346629 
11 0.0121368 
12 0.0587432 
13 0.00957232 
14 0.0155164 
15 0.000808804 
16 0.0136902 
17 0.0124288 
18 0.0841963 
19 0.258285 
20 0.0361645 
ITEM: TIMESTEP
66000
ITEM: NUMBER OF ENTRIES
20
ITEM: BOX BOUNDS pp pp pp
-1.0000000000000000e+01 1.0000000000000000e+01
-1.0000000000000000e+01 1.0000000000000000e+01
-1.0000000000000000e+01 1.0000000000000000e+01
ITEM: ENTRIES index c_bondenergy
1 0.12201 
2 0.219395 
3 0.00369507 
4 0.034376 
5 0.00431519 
6 0.013067 
7 0.0205235 
8 0.0497915 
9 0.0163772 
10 0.0449148 
11 0.0200537 
12 0.111401 
13 0.0729302 
14 0.0637882 
15 0.0237149 
16 0.00236902 
17 0.128697 
18 0.00247628 
19 0.132512 
20 0.0547355 
ITEM: TIMESTEP
67000
ITEM: NUMBER OF ENTRIES
20
ITEM: BOX BOUNDS pp pp pp
-1.0000000000000000e+01 1.0000000000000000e+01
-1.0000000000000000e+01 1.0000000000000000e+01
-1.0000000000000000e+01 1.0000000000000000e+01
ITEM: ENTRIES index c_bondenergy
1 0.945773 
2 0.705297 
3 0.003005 
4 8.37144e-05 
5 0.0103477 
6 0.0388766 
7 0.0239594 
8 0.00477328 
9 0.00189699 
10 0.0321987 
11 0.215344 
12 0.000239119 
13 0.0245356 
14 0.167565 
15 0.0427273 
16 0.00510142 
17 0.0551207 
18 1.40162 
19 0.0634955 
20 0.5784 
ITEM: TIMESTEP
68000
ITEM: NUMBER OF ENTRIES
20
ITEM: BOX BOUNDS pp pp pp
-1.0000000000000000e+01 1.0000000000000000e+01
-1.0000000000000000e+01 1.0000000000000000e+01
-1.0000000000000000e+01 1.0000000000000000e+01
ITEM: ENTRIES index c_bondenergy
1 0.282427 
2 1.32239 
3 0.0136112 
4 0.0674039 
5 0.0158869 
6 0.000154706 
7 0.0168632 
8 0.0468046 
9 0.00493265 
10 0.0105882 
11 0.0688114 
12 0.129434 
13 0.0267519 
14 0.0467867 
15 8.33878e-07 
16 0.0342554 
17 0.000119556 
18 0.0170272 
19 0.0268959 
20 0.0485338 
ITEM: TIMESTEP
69000
ITEM: NUMBER OF ENTRIES
20
ITEM: BOX BOUNDS pp pp pp
-1.0000000000000000e+01 1.0000000000000000e+01
-1.0000000000000000e+01 1.0000000000000000e+01
-1.0000000000000000e+01 1.0000000000000000e+01
ITEM: ENTRIES index c_bondenergy
1 0.213977 
2 0.0397398 
3 0.0144457 
4 0.00654764 
5 0.0428287 
6 0.11303 
7 0.00542601 
8 0.0420576 
9 0.0184358 
10 0.0232208 
11 0.0103081 
12 0.0830611 
13 0.0858624 
14 0.0610727 
15 0.0158453 
16 0.0160458 
17 0.654496 
18 0.0927187 
19 0.52712 
20 0.0888232 
ITEM: TIMESTEP
70000
ITEM: NUMBER OF ENTRIES
20
ITEM: BOX BOUNDS pp pp pp
-1.0000000000000000e+01 1.0000000000000000e+01
-1.0000000000000000e+01 1.0000000000000000e+01
-1.0000000000000000e+01 1.0000000000000000e+01
ITEM: ENTRIES index c_bondenergy
1 0.592543 
2 0.624808 
3 0.00554193 
4 0.00190042 
5 0.00255053 
6 0.00140403 
7 0.000867832 
8 0.0229616 
9 0.0363268 
10 0.067981 
11 0.0422427 
12 0.0338542 
13 0.0241871 
14 0.0475066 
15 0.00750618 
16 0.0313241 
17 0.779372 
18 0.0474019 
19 0.00104366 
20 0.51321 
ITEM: TIMESTEP
71000
ITEM: NUMBER OF ENTRIES
20
ITEM: BOX BOUNDS pp pp pp
-1.0000000000000000e+01 1.0000000000000000e+01
-1.0000000000000000e+01 1.0000000000000000e+01
-1.0000000000000000e+01 1.0000000000000000e+01
ITEM: ENTRIES index c_bondenergy
1 0.265506 
2 0.0756805 
3 0.0206877 
4 0.00183682 
5 0.30031 
6 0.015984 
7 0.0516674 
8 0.00310608 
9 0.00411148 
10 0.11905 
11 0.00429196 
12 0.052016 
13 0.059615 
14 0.0327718 
15 0.0386135 
16 0.067796 
17 0.000344197 
18 0.196573 
19 0.575733 
20 0.0283377 
ITEM: TIMESTEP
72000
ITEM: NUMBER OF ENTRIES
20
ITEM: BOX BOUNDS pp pp pp
-1.0000000000000000e+01 1.0000000000000000e+01
-1.0000000000000000e+01 1.0000000000000000e+01
-1.0000000000000000e+01 1.0000000000000000e+01
ITEM: ENTRIES index c_bondenergy
1 0.441485 
2 0.0349843 
3 7.40214e-05 
4 0.228555 
5 0.0320707 
6 0.108489 
7 0.227874 
8 0.0361731 
9 0.0114209 
10 0.0100205 
11 0.0433209 
12 0.0270557 
13 0.0856571 
14 0.00709137 
15 0.00342142 
16 0.00834106 
17 0.0844353 
18 0.20354 
19 0.0898318 
20 0.0193324 
ITEM: TIMESTEP
73000
ITEM: NUMBER OF ENTRIES
20
ITEM: BOX BOUNDS pp pp pp
-1.0000000000000000e+01 1.0000000000000000e+01
-1.0000000000000000e+01 1.0000000000000000e+01
-1.0000000000000000e+01 1.0000000000000000e+01
ITEM: ENTRIES index c_bondenergy
1 0.0421654 
2 0.0747119 
3 0.733085 
4 0.0955626 
5 0.105215 
6 0.331104 
7 0.762452 
8 0.169547 
9 0.0024673 
10 0.00142158 
11 0.01032 
12 0.0742974 
13 0.0520298 
14 0.00023039 
15 0.0647547 
16 0.0926623 
17 0.070927 
18 0.0436066 
19 0.00207747 
20 0.00813463 
ITEM: TIMESTEP
74000
ITEM: NUMBER OF ENTRIES
20
ITEM: BOX BOUNDS pp pp pp
-1.0000000000000000e+01 1.0000000000000000e+01
-1.0000000000000000e+01 1.0000000000000000e+01
-1.0000000000000000e+01 1.0000000000000000e+01
ITEM: ENTRIES index c_bondenergy
1 0.00548066 
2 0.000660187 
3 0.0113186 
4 0.00773051 
5 0.00199418 
6 0.0316832 
7 0.00216903 
8 1.17562 
9 0.00416643 
10 0.0143424 
11 0.058509 
12 0.195757 
13 0.00123518 
14 0.000129111 
15 0.111956 
16 1.76778e-05 
17 0.459305 
18 0.0340592 
19 0.161428 
20 0.18563 
ITEM: TIMESTEP
75000
ITEM: NUMBER OF ENTRIES
20
ITEM: BOX BOUNDS pp pp pp
-1.0000000000000000e+01 1.0000000000000000e+01
-1.0000000000000000e+01 1.0000000000000000e+01
-1.0000000000000000e+01 1.0000000000000000e+01
ITEM: ENTRIES index c_bondenergy
1 0.00501471 
2 0.0362518 
3 0.00893903 
4 0.00212648 
5 0.0163273 
6 0.00511012 
7 0.209224 
8 0.0148952 
9 1.14047e-06 
10 0.101611 
11 0.0396326 
12 0.00504227 
13 0.0860257 
14 0.0182214 
15 0.0170479 
16 0.0461245 
17 0.202769 
18 0.00715145 
19 0.170018 
20 0.000101306 
ITEM: TIMESTEP
76000
ITEM: NUMBER OF ENTRIES
20
ITEM: BOX BOUNDS pp pp pp
-1.0000000000000000e+01 1.0000000000000000e+01
-1.0000000000000000e+01 1.0000000000000000e+01
-1.0000000000000000e+01 1.0000000000000000e+01
ITEM: ENTRIES index c_bondenergy
1 0.00532636 
2 0.0558098 
3 0.00921398 
4 0.0499966 
5 0.00228488 
6 1.81001e-06 
7 0.0051859 
8 0.106201 
9 0.0427103 
10 1.98333e-06 
11 0.0218421 
12 0.00904028 
13 0.0278711 
14 0.00169522 
15 0.0367651 
16 0.00235934 
17 0.00861631 
18 0.101324 
19 0.000619825 
20 0.2352 
ITEM: TIMESTEP
77000
ITEM: NUMBER OF ENTRIES
20
ITEM: BOX BOUNDS pp pp pp
-1.0000000000000000e+01 1.0000000000000000e+01
-1.0000000000000000e+01 1.0000000000000000e+01
-1.0000000000000000e+01 1.0000000000000000e+01
ITEM: ENTRIES index c_bondenergy
1 1.96171e-05 
2 0.175117 
3 0.182942 
4 0.00509447 
5 0.0680533 
6 0.00342413 
7 0.0439503 
8 0.112712 
9 0.0063494 
10 0.0223734 
11 0.0407975 
12 0.0212625 
13 0.0298287 
14 0.0705782 
15 0.00512617 
16 0.0340319 
17 0.0169809 
18 0.0870622 
19 0.011934 
20 0.199209 
ITEM: TIMESTEP
78000
ITEM: NUMBER OF ENTRIES
20
ITEM: BOX BOUNDS pp pp pp
-1.0000000000000000e+01 1.0000000000000000e+01
-1.0000000000000000e+01 1.0000000000000000e+01
-1.0000000000000000e+01 1.0000000000000000e+01
ITEM: ENTRIES index c_bondenergy
1 0.00139622 
2 0.0138504 
3 0.0366209 
4 0.00135496 
5 0.164458 
6 0.00482529 
7 0.0501591 
8 0.000539458 
9 0.000285394 
10 0.0421914 
11 0.0203232 
12 0.0142359 
13 0.0211778 
14 0.0234103 
15 0.156492 
16 0.512524 
17 1.01891 
18 0.0618791 
19 0.0273458 
20 0.263915 
ITEM: TIMESTEP
79000
ITEM: NUMBER OF ENTRIES
20
ITEM: BOX BOUNDS pp pp pp
-1.0000000000000000e+01 1.0000000000000000e+01
-1.0000000000000000e+01 1.0000000000000000e+01
-1.0000000000000000e+01 1.0000000000000000e+01
ITEM: ENTRIES index c_bondenergy
1 0.000202043 
2 7.04039e-05 
3 0.00452153 
4 0.013971 
5 0.0146455 
6 0.0253372 
7 0.0131397 
8 0.0694378 
9 9.65349e-05 
10 0.037585 
11 0.0762426 
12 0.0304796 
13 0.0104988 
14 0.0306836 
15 0.0947901 
16 0.154814 
17 0.25383 
18 0.0669899 
19 0.0729297 
20 0.0384473 
ITEM: TIMESTEP
80000
ITEM: NUMBER OF ENTRIES
20
ITEM: BOX BOUNDS pp pp pp
-1.0000000000000000e+01 1.0000000000000000e+01
-1.0000000000000000e+01 1.0000000000000000e+01
-1.0000000000000000e+01 1.0000000000000000e+01
ITEM: ENTRIES index c_bondenergy
1 0.337994 
2 0.033037 
3 0.14322 
4 1.1201 
5 0.100866 
6 0.00360255 
7 0.0138944 
8 0.094885 
9 0.00289159 
10 0.0885144 
11 0.0155621 
12 2.07146e-05 
13 0.0081193 
14 0.00686702 
15 0.566917 
16 0.0147572 
17 0.103905 
18 0.903217 
19 0.00691389 
20 0.0336537 
ITEM: TIMESTEP
81000
ITEM: NUMBER OF ENTRIES
20
ITEM: BOX BOUNDS pp pp pp
-1.0000000000000000e+01 1.0000000000000000e+01
-1.0000000000000000e+01 1.0000000000000000e+01
-1.0000000000000000e+01 1.0000000000000000e+01
ITEM: ENTRIES index c_bondenergy
1 0.112012 
2 0.000828088 
3 0.00325842 
4 0.00174329 
5 0.374617 
6 1.09305e-06 
7 0.00116072 
8 0.0506071 
9 0.0593534 
10 0.0272911 
11 0.196045 
12 0.000145062 
13 0.112728 
14 0.039144 
15 0.000593047 
16 0.0266594 
17 0.233594 
18 1.81929 
19 0.408791 
20 0.0869335 
ITEM: TIMESTEP
82000
ITEM: NUMBER OF ENTRIES
20
ITEM: BOX BOUNDS pp pp pp
-1.0000000000000000e+01 1.0000000000000000e+01
-1.0000000000000000e+01 1.0000000000000000e+01
-1.0000000000000000e+01 1.0000000000000000e+01
ITEM: ENTRIES index c_bondenergy
1 0.621888 
2 1.80694e-06 
3 0.00226861 
4 0.021098 
5 0.0134808 
6 0.324519 
7 0.0247747 
8 0.0673774 
9 0.025528 
10 0.0263803 
11 0.000304391 
12 5.68722e-05 
13 0.00351695 
14 0.0685114 
15 0.0353205 
16 0.0406558 
17 0.117462 
18 1.69145 
19 1.12094 
20 0.0477377 
ITEM: TIMESTEP
83000
ITEM: NUMBER OF ENTRIES
20
ITEM: BOX BOUNDS pp pp pp
-1.0000000000000000e+01 1.0000000000000000e+01
-1.0000000000000000e+01 1.0000000000000000e+01
-1.0000000000000000e+01 1.0000000000000000e+01
ITEM: ENTRIES index c_bondenergy
1 0.0807286 
2 0.276282 
3 0.296081 
4 0.0957671 
5 0.190536 
6 0.0302658 
7 0.00546626 
8 0.0717248 
9 0.0138243 
10 0.0491863 
11 0.0554289 
12 0.0247649 
13 0.0666146 
14 0.137324 
15 0.0278612 
16 0.00313156 
17 0.0122442 
18 0.000678202 
19 0.013778 
20 0.00671002 
ITEM: TIMESTEP
84000
ITEM: NUMBER OF ENTRIES
20
ITEM: BOX BOUNDS pp pp pp
-1.0000000000000000e+01 1.0000000000000000e+01
-1.0000000000000000e+01 1.0000000000000000e+01
-1.0000000000000000e+01 1.0000000000000000e+01
ITEM: ENTRIES index c_bondenergy
1 0.00753668 
2 0.000694927 
3 0.000475816 
4 0.463055 
5 0.0541911 
6 0.00457381 
7 0.0179006 
8 5.99778e-05 
9 0.0765058 
10 0.0155777 
11 0.0110251 
12 0.0308639 
13 0.0439361 
14 0.00105526 
15 0.0715325 
16 0.0105159 
17 2.39683e-06 
18 0.0375052 
19 0.00799452 
20 0.116022 
ITEM: TIMESTEP
85000
ITEM: NUMBER OF ENTRIES
20
ITEM: BOX BOUNDS pp pp pp
-1.0000000000000000e+01 1.0000000000000000e+01
-1.0000000000000000e+01 1.0000000000000000e+01
-1.0000000000000000e+01 1.0000000000000000e+01
ITEM: ENTRIES index c_bondenergy
1 0.0126554 
2 0.0329732 
3 0.028681 
4 0.00432188 
5 0.00142437 
6 0.0084248 
7 0.00948703 
8 0.22161 
9 0.120393 
10 0.0233314 
11 0.0582639 
12 0.00124784 
13 0.117968 
14 0.228954 
15 0.00323932 
16 0.526874 
17 0.00626839 
18 0.00608534 
19 0.00142424 
20 0.342681 
ITEM: TIMESTEP
86000
ITEM: NUMBER OF ENTRIES
20
ITEM: BOX BOUNDS pp pp pp
-1.0000000000000000e+01 1.0000000000000000e+01
-1.0000000000000000e+01 1.0000000000000000e+01
-1.0000000000000000e+01 1.0000000000000000e+01
ITEM: ENTRIES index c_bondenergy
1 0.132052 
2 0.00517984 
3 0.0147212 
4 0.000619898 
5 0.0625652 
6 0.0133731 
7 0.0107454 
8 0.0524425 
9 0.00564793 
10 0.0716746 
11 0.0568242 
12 0.0784768 
13 0.0689746 
14 0.0371009 
15 0.00613713 
16 0.00337718 
17 0.0151872 
18 0.000107167 
19 0.435712 
20 0.0302156 
ITEM: TIMESTEP
87000
ITEM: NUMBER OF ENTRIES
20
ITEM: BOX BOUNDS pp pp pp
-1.0000000000000000e+01 1.0000000000000000e+01
-1.0000000000000000e+01 1.0000000000000000e+01
-1.0000000000000000e+01 1.0000000000000000e+01
ITEM: ENTRIES index c_bondenergy
1 0.00483911 
2 0.014553 
3 0.331133 
4 0.0192877 
5 0.0043791 
6 0.00312261 
7 0.0462187 
8 0.00157998 
9 0.0494101 
10 0.0533825 
11 0.0439442 
12 0.160879 
13 0.0397906 
14 0.323455 
15 0.0207344 
16 0.00495317 
17 0.0332864 
18 0.0114447 
19 0.00593126 
20 0.0574684 
ITEM: TIMESTEP
88000
ITEM: NUMBER OF ENTRIES
20
ITEM: BOX BOUNDS pp pp pp
-1.0000000000000000e+01 1.0000000000000000e+01
-1.0000000000000000e+01 1.0000000000000000e+01
-1.0000000000000000e+01 1.0000000000000000e+01
ITEM: ENTRIES index c_bondenergy
1 0.0300113 
2 0.00824216 
3 0.0102001 
4 0.000115079 
5 0.0236259 
6 0.00241679 
7 0.0565226 
8 0.0066983 
9 0.106197 
10 0.176908 
11 0.00327743 
12 0.0475994 
13 0.0208797 
14 0.000266972 
15 0.123282 
16 0.00979662 
17 0.00568903 
18 0.12083 
19 0.385108 
20 1.4971 
ITEM: TIMESTEP
89000
ITEM: NUMBER OF ENTRIES
20
ITEM: BOX BOUNDS pp pp pp
-1.0000000000000000e+01 1.0000000000000000e+01
-1.0000000000000000e+01 1.0000000000000000e+01
-1.0000000000000000e+01 1.0000000000000000e+01
ITEM: ENTRIES index c_bondenergy
1 0.101257 
2 0.0530656 
3 0.00281076 
4 0.00410301 
5 0.00610872 
6 0.00459798 
7 0.000237274 
8 0.155447 
9 0.202991 
10 0.000581804 
11 0.00696815 
12 0.00891266 
13 0.0350129 
14 0.104472 
15 0.0713069 
16 0.00101559 
17 0.0552372 
18 0.0242376 
19 0.055831 
20 0.153284 
ITEM: TIMESTEP
90000
ITEM: NUMBER OF ENTRIES
20
ITEM: BOX BOUNDS pp pp pp
-1.0000000000000000e+01 1.0000000000000000e+01
-1.0000000000000000e+01 1.0000000000000000e+01
-1.0000000000000000e+01 1.0000000000000000e+01
ITEM: ENTRIES index c_bondenergy
1 0.0271674 
2 0.000548434 
3 0.0506582 
4 0.0477929 
5 0.230681 
6 0.000599473 
7 0.0415676 
8 4.87204e-06 
9 0.000640467 
10 0.0211785 
11 0.0899987 
12 0.0030987 
13 0.00558607 
14 0.00212472 
15 0.0301084 
16 0.04284 
17 0.0290702 
18 0.000247673 
19 0.11787 
20 0.42664 
ITEM: TIMESTEP
91000
ITEM: NUMBER OF ENTRIES
20
ITEM: BOX BOUNDS pp pp pp
-1.0000000000000000e+01 1.0000000000000000e+01
-1.0000000000000000e+01 1.0000000000000000e+01
-1.0000000000000000e+01 1.0000000000000000e+01
ITEM: ENTRIES index c_bondenergy
1 0.0723255 
2 0.00954365 
3 0.0133601 
4 0.00119011 
5 0.0798245 
6 0.0333127 
7 0.379475 
8 0.135772 
9 0.459541 
10 0.629882 
11 0.00708111 
12 0.000452469 
13 0.309341 
14 0.061617 
15 0.00906979 
16 0.0702445 
17 0.844144 
18 0.0467104 
19 0.0528473 
20 0.0743433 
ITEM: TIMESTEP
92000
ITEM: NUMBER OF ENTRIES
20
ITEM: BOX BOUNDS pp pp pp
-1.0000000000000000e+01 1.0000000000000000e+01
-1.0000000000000000e+01 1.0000000000000000e+01
-1.0000000000000000e+01 1.0000000000000000e+01
ITEM: ENTRIES index c_bondenergy
1 0.000893038 
2 0.00708195 
3 0.0210479 
4 0.021323 
5 0.0263926 
6 0.0240815 
7 0.0326043 
8 0.0536354 
9 0.000260713 
10 0.102514 
11 0.0443561 
12 7.13857e-06 
13 2.09136e-09 
14 0.0282652 
15 0.00185378 
16 0.00720154 
17 0.0273538 
18 0.278044 
19 0.0517214 
20 0.0952028 
ITEM: TIMESTEP
93000
ITEM: NUMBER OF ENTRIES
20
ITEM: BOX BOUNDS pp pp pp
-1.0000000000000000e+01 1.0000000000000000e+01
-1.0000000000000000e+01 1.0000000000000000e+01
-1.0000000000000000e+01 1.0000000000000000e+01
ITEM: ENTRIES index c_bondenergy
1 0.0175331 
2 0.225116 
3 0.00314542 
4 0.0361522 
5 0.0657097 
6 0.00413551 
7 0.0302588 
8 0.497937 
9 0.275704 
10 0.019763 
11 0.0253243 
12 0.0274954 
13 0.0260228 
14 0.0190152 
15 0.0418886 
16 0.00172172 
17 0.0657141 
18 0.180524 
19 0.151959 
20 0.156729 
ITEM: TIMESTEP
94000
ITEM: NUMBER OF ENTRIES
20
ITEM: BOX BOUNDS pp pp pp
-1.0000000000000000e+01 1.0000000000000000e+01
-1.0000000000000000e+01 1.0000000000000000e+01
-1.0000000000000000e+01 1.0000000000000000e+01
ITEM: ENTRIES index c_bondenergy
1 0.000596382 
2 0.00383239 
3 0.00913446 
4 0.154747 
5 0.0162032 
6 5.46099e-05 
7 0.473466 
8 0.0666878 
9 0.00197517 
10 0.0659588 
11 0.0021194 
12 0.000334715 
13 0.0674979 
14 1.38789e-05 
15 0.000292187 
16 0.0538718 
17 0.0691949 
18 0.0191041 
19 0.00138626 
20 0.0128762 
ITEM: TIMESTEP
95000
ITEM: NUMBER OF ENTRIES
20
ITEM: BOX BOUNDS pp pp pp
-1.0000000000000000e+01 1.0000000000000000e+01
-1.0000000000000000e+01 1.0000000000000000e+01
-1.0000000000000000e+01 1.0000000000000000e+01
ITEM: ENTRIES index c_bondenergy
1 0.108976 
2 0.000171526 
3 0.0148176 
4 0.599731 
5 0.418121 
6 0.00198801 
7 0.012945 
8 0.14427 
9 0.157628 
10 0.00835355 
11 0.0614927 
12 0.0875913 
13 0.0217029 
14 0.0367823 
15 0.0894864 
16 0.00714546 
17 0.00206048 
18 0.000481653 
19 0.0328301 
20 0.0169814 
ITEM: TIMESTEP
96000
ITEM: NUMBER OF ENTRIES
20
ITEM: BOX BOUNDS pp pp pp
-1.0000000000000000e+01 1.0000000000000000e+01
-1.0000000000000000e+01 1.0000000000000000e+01
-1.0000000000000000e+01 1.0000000000000000e+01
ITEM: ENTRIES index c_bondenergy
1 0.110878 
2 0.0212606 
3 0.44289 
4 0.040554 
5 0.0285077 
6 0.632842 
7 0.184448 
8 0.119462 
9 0.00567591 
10 0.000136899 
11 0.0207067 
12 0.0286717 
13 0.000709988 
14 0.0360165 
15 0.0349373 
16 0.0714131 
17 0.0641716 
18 0.0978272 
19 0.0279455 
20 0.0398816 
ITEM: TIMESTEP
97000
ITEM: NUMBER OF ENTRIES
20
ITEM: BOX BOUNDS pp pp pp
-1.0000000000000000e+01 1.0000000000000000e+01
-1.0000000000000000e+01 1.0000000000000000e+01
-1.0000000000000000e+01 1.0000000000000000e+01
ITEM: ENTRIES index c_bondenergy
1 0.536483 
2 0.0165645 
3 0.0453429 
4 0.000885556 
5 0.0483455 
6 0.215595 
7 0.323877 
8 0.108435 
9 0.135125 
10 0.0179274 
11 0.0479307 
12 0.604326 
13 0.0879634 
14 0.0416426 
15 0.174451 
16 0.0434471 
17 0.0870332 
18 0.19248 
19 0.00319535 
20 0.000525788 
ITEM: TIMESTEP
98000
ITEM: NUMBER OF ENTRIES
20
ITEM: BOX BOUNDS pp pp pp
-1.0000000000000000e+01 1.0000000000000000e+01
-1.0000000000000000e+01 1.0000000000000000e+01
-1.0000000000000000e+01 1.0000000000000000e+01
ITEM: ENTRIES index c_bondenergy
1 0.0835527 
2 0.00126771 
3 0.055179 
4 0.325743 
5 0.601183 
6 0.00572441 
7 0.0199916 
8 0.0585971 
9 0.0755212 
10 0.43751 
11 0.000349661 
12 0.0726208 
13 0.00335763 
14 0.0114343 
15 0.00615983 
16 0.0756541 
17 0.23809 
18 0.00122471 
19 0.000256185 
20 0.0246699 
ITEM: TIMESTEP
99000
ITEM: NUMBER OF ENTRIES
20
ITEM: BOX BOUNDS pp pp pp
-1.0000000000000000e+01 1.0000000000000000e+01
-1.0000000000000000e+01 1.0000000000000000e+01
-1.0000000000000000e+01 1.0000000000000000e+01
ITEM: ENTRIES index c_bondenergy
1 0.111275 
2 0.668984 
3 0.0908015 
4 0.00387356 
5 0.215383 
6 0.0812965 
7 0.388894 
8 0.0289587 
9 0.0997979 
10 0.0450648 
11 0.00697554 
12 0.200938 
13 0.0426245 
14 0.170155 
15 0.0284085 
16 0.0651211 
17 0.0212537 
18 0.112772 
19 0.205937 
20 0.227485 
ITEM: TIMESTEP
100000
ITEM: NUMBER OF ENTRIES
20
ITEM: BOX BOUNDS pp pp pp
-1.0000000000000000e+01 1.0000000000000000e+01
-1.0000000000000000e+01 1.0000000000000000e+01
-1.0000000000000000e+01 1.0000000000000000e+01
ITEM: ENTRIES index c_bondenergy
1 0.0987408 
2 0.0469101 
3 0.126705 
4 0.043063 
5 0.00657613 
6 0.225989 
7 1.11259 
8 0.00264573 
9 0.217786 
10 0.208057 
11 0.0115049 
12 0.0605868 
13 0.0160391 
14 0.231374 
15 0.0579922 
16 0.0225623 
17 0.00147259 
18 0.00715015 
19 0.0599731 
20 0.000841087 
