ITEM: TIMESTEP
0
ITEM: NUMBER OF ATOMS
1500
ITEM: BOX BOUNDS pp pp pp
-1.0000000000000000e+02 1.0000000000000000e+02
-1.0000000000000000e+02 1.0000000000000000e+02
-1.0000000000000000e+02 1.0000000000000000e+02
ITEM: ATOMS id type mol x y z
1 1 1 22.7599 -21.4444 68.9967
2 2 1 24.7599 -21.4444 68.9967
3 1 1 25.7599 -19.7124 68.9967
4 1 2 -27.1787 55.6906 0.623398
5 2 2 -25.1787 55.6906 0.623398
6 1 2 -24.1787 57.4227 0.623398
7 1 3 -78.206 -14.2478 51.0266
8 2 3 -76.206 -14.2478 51.0266
9 1 3 -75.206 -12.5157 51.0266
10 1 4 37.2497 -85.1076 -29.2194
11 2 4 39.2497 -85.1076 -29.2194
12 1 4 40.2497 -83.3756 -29.2194
13 1 5 -35.131 86.9326 -18.3579
14 2 5 -33.131 86.9326 -18.3579
15 1 5 -32.131 88.6646 -18.3579
16 1 6 71.3864 18.1342 -75.8131
17 2 6 73.3864 18.1342 -75.8131
18 1 6 74.3864 19.8663 -75.8131
19 1 7 41.8722 -59.8137 -33.4254
20 2 7 43.8722 -59.8137 -33.4254
21 1 7 44.8722 -58.0816 -33.4254
22 1 8 -81.0347 -76.4184 46.8341
23 2 8 -79.0347 -76.4184 46.8341
24 1 8 -78.0347 -74.6863 46.8341
25 1 9 -11.1724 -71.6254 -7.4425
26 2 9 -9.17245 -71.6254 -7.4425
27 1 9 -8.17245 -69.8933 -7.4425
28 1 10 -52.0229 64.0804 21.3394
29 2 10 -50.0229 64.0804 21.3394
30 1 10 -49.0229 65.8125 21.3394
31 1 11 -15.4391 -59.6825 33.9604
32 2 11 -13.4391 -59.6825 33.9604
33 1 11 -12.4391 -57.9504 33.9604
34 1 12 -58.8159 -62.1453 -28.7934
35 2 12 -56.8159 -62.1453 -28.7934
36 1 12 -55.8159 -60.4132 -28.7934
37 1 13 -83.3291 -49.2138 -58.5829
38 2 13 -81.3291 -49.2138 -58.5829
39 1 13 -80.3291 -47.4817 -58.5829
40 1 14 -7.399 82.429 37.4704
41 2 14 -5.399 82.429 37.4704
42 1 14 -4.399 84.1611 37.4704
43 1 15 -36.4645 -88.3525 32.6601
44 2 15 -34.4645 -88.3525 32.6601
45 1 15 -33.4645 -86.6205 32.6601
46 1 16 -49.3915 -56.627 -20.7913
47 2 16 -47.3915 -56.627 -20.7913
48 1 16 -46.3915 -54.895 -20.7913
49 1 17 65.0649 43.9805 54.9075
50 2 17 67.0649 43.9805 54.9075
51 1 17 68.0649 45.7126 54.9075
52 1 18 59.996 45.654 4.99974
53 2 18 61.996 45.654 4.99974
54 1 18 62.996 47.3861 4.99974
55 1 19 -63.7292 -6.16295 -42.7815
56 2 19 -61.7292 -6.16295 -42.7815
57 1 19 -60.7292 -4.4309 -42.7815
58 1 20 -74.5958 -51.4797 -22.1404
59 2 20 -72.5958 -51.4797 -22.1404
60 1 20 -71.5958 -49.7477 -22.1404
61 1 21 35.2212 55.2271 15.2897
62 2 21 37.2212 55.2271 15.2897
63 1 21 38.2212 56.9592 15.2897
64 1 22 59.9055 -64.6112 21.2275
65 2 22 61.9055 -64.6112 21.2275
66 1 22 62.9055 -62.8791 21.2275
67 1 23 -41.2893 28.342 -56.3744
68 2 23 -39.2893 28.342 -56.3744
69 1 23 -38.2893 30.074 -56.3744
70 1 24 -39.0725 -67.4742 26.2612
71 2 24 -37.0725 -67.4742 26.2612
72 1 24 -36.0725 -65.7422 26.2612
73 1 25 -12.1504 6.6646 23.2519
74 2 25 -10.1504 6.6646 23.2519
75 1 25 -9.1504 8.39665 23.2519
76 1 26 -11.7992 -20.7241 -27.1011
77 2 26 -9.79916 -20.7241 -27.1011
78 1 26 -8.79916 -18.992 -27.1011
79 1 27 -56.6861 83.5664 -85.8291
80 2 27 -54.6861 83.5664 -85.8291
81 1 27 -53.6861 85.2985 -85.8291
82 1 28 76.7531 -43.189 20.4276
83 2 28 78.7531 -43.189 20.4276
84 1 28 79.7531 -41.4569 20.4276
85 1 29 62.1569 34.1074 -34.997
86 2 29 64.1569 34.1074 -34.997
87 1 29 65.1569 35.8394 -34.997
88 1 30 12.3498 2.0646 -86.4852
89 2 30 14.3498 2.0646 -86.4852
90 1 30 15.3498 3.79665 -86.4852
91 1 31 64.5381 61.6939 -15.3779
92 2 31 66.5381 61.6939 -15.3779
93 1 31 67.5381 63.4259 -15.3779
94 1 32 -8.79741 -21.3133 86.4768
95 2 32 -6.79741 -21.3133 86.4768
96 1 32 -5.79741 -19.5813 86.4768
97 1 33 -35.1907 -60.877 -4.89965
98 2 33 -33.1907 -60.877 -4.89965
99 1 33 -32.1907 -59.145 -4.89965
100 1 34 69.5346 59.4136 -35.2376
101 2 34 71.5346 59.4136 -35.2376
102 1 34 72.5346 61.1457 -35.2376
103 1 35 -73.6437 33.5716 7.23897
104 2 35 -71.6437 33.5716 7.23897
105 1 35 -70.6437 35.3036 7.23897
106 1 36 27.0412 59.6227 80.8735
107 2 36 29.0412 59.6227 80.8735
108 1 36 30.0412 61.3548 80.8735
109 1 37 66.4317 37.0274 50.1385
110 2 37 68.4317 37.0274 50.1385
111 1 37 69.4317 38.7594 50.1385
112 1 38 23.569 -13.0922 23.1706
113 2 38 25.569 -13.0922 23.1706
114 1 38 26.569 -11.3601 23.1706
115 1 39 -67.0119 -15.0043 42.0963
116 2 39 -65.0119 -15.0043 42.0963
117 1 39 -64.0119 -13.2722 42.0963
118 1 40 63.911 76.4479 -17.6473
119 2 40 65.911 76.4479 -17.6473
120 1 40 66.911 78.1799 -17.6473
121 1 41 -80.287 48.6801 40.6103
122 2 41 -78.287 48.6801 40.6103
123 1 41 -77.287 50.4121 40.6103
124 1 42 -79.733 78.8073 -51.5164
125 2 42 -77.733 78.8073 -51.5164
126 1 42 -76.733 80.5393 -51.5164
127 1 43 4.84981 -36.2526 -14.6007
128 2 43 6.84981 -36.2526 -14.6007
129 1 43 7.84981 -34.5205 -14.6007
130 1 44 -48.8629 -52.584 88.4037
131 2 44 -46.8629 -52.584 88.4037
132 1 44 -45.8629 -50.852 88.4037
133 1 45 -17.0246 28.9071 54.4274
134 2 45 -15.0246 28.9071 54.4274
135 1 45 -14.0246 30.6391 54.4274
136 1 46 28.1974 -65.0384 12.4343
137 2 46 30.1974 -65.0384 12.4343
138 1 46 31.1974 -63.3064 12.4343
139 1 47 52.99 -58.8637 -11.816
140 2 47 54.99 -58.8637 -11.816
141 1 47 55.99 -57.1316 -11.816
142 1 48 -28.2924 -46.6505 7.18892
143 2 48 -26.2924 -46.6505 7.18892
144 1 48 -25.2924 -44.9184 7.18892
145 1 49 24.5925 2.4092 -23.5367
146 2 49 26.5925 2.4092 -23.5367
147 1 49 27.5925 4.14126 -23.5367
148 1 50 -60.0438 -68.389 -71.4546
149 2 50 -58.0438 -68.389 -71.4546
150 1 50 -57.0438 -66.6569 -71.4546
151 1 51 55.9111 -46.2441 -13.7365
152 2 51 57.9111 -46.2441 -13.7365
153 1 51 58.9111 -44.5121 -13.7365
154 1 52 -17.6719 -2.66077 82.2744
155 2 52 -15.6719 -2.66077 82.2744
156 1 52 -14.6719 -0.928716 82.2744
157 1 53 -43.1683 -21.1735 -27.1701
158 2 53 -41.1683 -21.1735 -27.1701
159 1 53 -40.1683 -19.4414 -27.1701
160 1 54 -0.462499 -25.6391 28.7984
161 2 54 1.5375 -25.6391 28.7984
162 1 54 2.5375 -23.907 28.7984
163 1 55 -65.3326 67.2972 -81.1752
164 2 55 -63.3326 67.2972 -81.1752
165 1 55 -62.3326 69.0292 -81.1752
166 1 56 -55.032 -70.8424 42.7911
167 2 56 -53.032 -70.8424 42.7911
168 1 56 -52.032 -69.1104 42.7911
169 1 57 -82.6991 79.7395 13.6293
170 2 57 -80.6991 79.7395 13.6293
171 1 57 -79.6991 81.4715 13.6293
172 1 58 54.7311 -55.7456 -28.5325
173 2 58 56.7311 -55.7456 -28.5325
174 1 58 57.7311 -54.0135 -28.5325
175 1 59 -18.9653 13.0158 -26.8069
176 2 59 -16.9653 13.0158 -26.8069
177 1 59 -15.9653 14.7479 -26.8069
178 1 60 85.4892 -9.43988 23.4564
179 2 60 87.4892 -9.43988 23.4564
180 1 60 88.4892 -7.70783 23.4564
181 1 61 -20.2737 68.0246 -43.5103
182 2 61 -18.2737 68.0246 -43.5103
183 1 61 -17.2737 69.7566 -43.5103
184 1 62 -68.2538 79.8289 -86.0862
185 2 62 -66.2538 79.8289 -86.0862
186 1 62 -65.2538 81.561 -86.0862
187 1 63 -71.9472 76.457 71.9362
188 2 63 -69.9472 76.457 71.9362
189 1 63 -68.9472 78.1891 71.9362
190 1 64 74.0676 -38.2222 -4.68498
191 2 64 76.0676 -38.2222 -4.68498
192 1 64 77.0676 -36.4901 -4.68498
193 1 65 62.3606 -57.2762 52.2196
194 2 65 64.3606 -57.2762 52.2196
195 1 65 65.3606 -55.5442 52.2196
196 1 66 -65.3652 18.8859 -36.0719
197 2 66 -63.3652 18.8859 -36.0719
198 1 66 -62.3652 20.618 -36.0719
199 1 67 -50.977 45.9297 -52.1068
200 2 67 -48.977 45.9297 -52.1068
201 1 67 -47.977 47.6618 -52.1068
202 1 68 -33.4571 -42.3085 7.91641
203 2 68 -31.4571 -42.3085 7.91641
204 1 68 -30.4571 -40.5765 7.91641
205 1 69 79.4487 34.3322 77.9121
206 2 69 81.4487 34.3322 77.9121
207 1 69 82.4487 36.0642 77.9121
208 1 70 -23.183 -78.7731 -34.1289
209 2 70 -21.183 -78.7731 -34.1289
210 1 70 -20.183 -77.041 -34.1289
211 1 71 -69.0097 49.4091 55.5132
212 2 71 -67.0097 49.4091 55.5132
213 1 71 -66.0097 51.1412 55.5132
214 1 72 71.0438 23.9147 59.5987
215 2 72 73.0438 23.9147 59.5987
216 1 72 74.0438 25.6467 59.5987
217 1 73 -86.0519 -12.2606 75.7042
218 2 73 -84.0519 -12.2606 75.7042
219 1 73 -83.0519 -10.5286 75.7042
220 1 74 18.9284 -63.6253 62.7576
221 2 74 20.9284 -63.6253 62.7576
222 1 74 21.9284 -61.8933 62.7576
223 1 75 66.4039 -35.6426 44.8552
224 2 75 68.4039 -35.6426 44.8552
225 1 75 69.4039 -33.9106 44.8552
226 1 76 -59.9663 82.6609 -8.50015
227 2 76 -57.9663 82.6609 -8.50015
228 1 76 -56.9663 84.393 -8.50015
229 1 77 -24.2137 -52.8954 -15.5008
230 2 77 -22.2137 -52.8954 -15.5008
231 1 77 -21.2137 -51.1633 -15.5008
232 1 78 62.3097 88.4366 -76.7227
233 2 78 64.3097 88.4366 -76.7227
234 1 78 65.3097 90.1687 -76.7227
235 1 79 54.1704 -61.6916 -54.6874
236 2 79 56.1704 -61.6916 -54.6874
237 1 79 57.1704 -59.9596 -54.6874
238 1 80 -87.4632 -47.227 36.9779
239 2 80 -85.4632 -47.227 36.9779
240 1 80 -84.4632 -45.495 36.9779
241 1 81 -61.5659 17.4826 57.0835
242 2 81 -59.5659 17.4826 57.0835
243 1 81 -58.5659 19.2147 57.0835
244 1 82 5.74573 49.6613 43.9399
245 2 82 7.74573 49.6613 43.9399
246 1 82 8.74573 51.3933 43.9399
247 1 83 22.1204 -74.4802 -13.3256
248 2 83 24.1204 -74.4802 -13.3256
249 1 83 25.1204 -72.7481 -13.3256
250 1 84 -16.389 1.4195 17.1518
251 2 84 -14.389 1.4195 17.1518
252 1 84 -13.389 3.15155 17.1518
253 1 85 -91.3993 -51.9334 -51.0222
254 2 85 -89.3993 -51.9334 -51.0222
255 1 85 -88.3993 -50.2014 -51.0222
256 1 86 -71.8439 -57.6646 -59.0784
257 2 86 -69.8439 -57.6646 -59.0784
258 1 86 -68.8439 -55.9325 -59.0784
259 1 87 75.0683 4.46477 7.00404
260 2 87 77.0683 4.46477 7.00404
261 1 87 78.0683 6.19682 7.00404
262 1 88 36.482 -12.9688 39.9482
263 2 88 38.482 -12.9688 39.9482
264 1 88 39.482 -11.2367 39.9482
265 1 89 42.775 8.94528 56.8519
266 2 89 44.775 8.94528 56.8519
267 1 89 45.775 10.6773 56.8519
268 1 90 55.2918 -87.4344 -86.3821
269 2 90 57.2918 -87.4344 -86.3821
270 1 90 58.2918 -85.7024 -86.3821
271 1 91 -27.5667 -63.8764 87.2569
272 2 91 -25.5667 -63.8764 87.2569
273 1 91 -24.5667 -62.1443 87.2569
274 1 92 -79.6979 -60.5009 -60.3162
275 2 92 -77.6979 -60.5009 -60.3162
276 1 92 -76.6979 -58.7689 -60.3162
277 1 93 -1.90216 -56.5102 22.1964
278 2 93 0.0978407 -56.5102 22.1964
279 1 93 1.09784 -54.7781 22.1964
280 1 94 13.5228 -12.6651 20.2598
281 2 94 15.5228 -12.6651 20.2598
282 1 94 16.5228 -10.9331 20.2598
283 1 95 -66.2687 48.7101 83.3329
284 2 95 -64.2687 48.7101 83.3329
285 1 95 -63.2687 50.4421 83.3329
286 1 96 44.9623 -86.2153 43.9055
287 2 96 46.9623 -86.2153 43.9055
288 1 96 47.9623 -84.4832 43.9055
289 1 97 -82.3713 -44.5759 -9.06409
290 2 97 -80.3713 -44.5759 -9.06409
291 1 97 -79.3713 -42.8438 -9.06409
292 1 98 -46.3501 30.6218 53.407
293 2 98 -44.3501 30.6218 53.407
294 1 98 -43.3501 32.3539 53.407
295 1 99 -79.2604 19.696 -40.7157
296 2 99 -77.2604 19.696 -40.7157
297 1 99 -76.2604 21.428 -40.7157
298 1 100 57.0622 20.9209 -72.9574
299 2 100 59.0622 20.9209 -72.9574
300 1 100 60.0622 22.6529 -72.9574
301 1 101 5.3829 -22.2618 -38.253
302 2 101 7.3829 -22.2618 -38.253
303 1 101 8.3829 -20.5298 -38.253
304 1 102 84.3332 11.7904 -72.249
305 2 102 86.3332 11.7904 -72.249
306 1 102 87.3332 13.5224 -72.249
307 1 103 70.8041 15.8447 -35.926
308 2 103 72.8041 15.8447 -35.926
309 1 103 73.8041 17.5767 -35.926
310 1 104 1.7021 -63.9814 46.4022
311 2 104 3.7021 -63.9814 46.4022
312 1 104 4.7021 -62.2494 46.4022
313 1 105 -9.29908 1.95596 -65.9643
314 2 105 -7.29908 1.95596 -65.9643
315 1 105 -6.29908 3.68801 -65.9643
316 1 106 5.2955 -66.1672 -11.7926
317 2 106 7.2955 -66.1672 -11.7926
318 1 106 8.2955 -64.4352 -11.7926
319 1 107 -38.936 3.18862 -26.7521
320 2 107 -36.936 3.18862 -26.7521
321 1 107 -35.936 4.92067 -26.7521
322 1 108 -30.3945 -75.5958 -38.0458
323 2 108 -28.3945 -75.5958 -38.0458
324 1 108 -27.3945 -73.8637 -38.0458
325 1 109 28.2191 -36.0779 -6.79114
326 2 109 30.2191 -36.0779 -6.79114
327 1 109 31.2191 -34.3459 -6.79114
328 1 110 59.1242 -76.9472 20.3163
329 2 110 61.1242 -76.9472 20.3163
330 1 110 62.1242 -75.2151 20.3163
331 1 111 -66.5741 -74.2329 0.687304
332 2 111 -64.5741 -74.2329 0.687304
333 1 111 -63.5741 -72.5009 0.687304
334 1 112 -82.3966 5.39215 -23.6496
335 2 112 -80.3966 5.39215 -23.6496
336 1 112 -79.3966 7.1242 -23.6496
337 1 113 -38.5273 -70.5507 38.614
338 2 113 -36.5273 -70.5507 38.614
339 1 113 -35.5273 -68.8187 38.614
340 1 114 -2.50662 18.5458 -38.0818
341 2 114 -0.506624 18.5458 -38.0818
342 1 114 0.493376 20.2779 -38.0818
343 1 115 27.4441 77.2781 -3.73255
344 2 115 29.4441 77.2781 -3.73255
345 1 115 30.4441 79.0102 -3.73255
346 1 116 -69.4305 65.8521 -88.6254
347 2 116 -67.4305 65.8521 -88.6254
348 1 116 -66.4305 67.5842 -88.6254
349 1 117 -72.1199 -13.5315 -75.0977
350 2 117 -70.1199 -13.5315 -75.0977
351 1 117 -69.1199 -11.7994 -75.0977
352 1 118 18.9751 56.8993 -15.1813
353 2 118 20.9751 56.8993 -15.1813
354 1 118 21.9751 58.6314 -15.1813
355 1 119 -53.2477 43.1547 -86.7975
356 2 119 -51.2477 43.1547 -86.7975
357 1 119 -50.2477 44.8867 -86.7975
358 1 120 0.263654 -73.9136 -48.5883
359 2 120 2.26365 -73.9136 -48.5883
360 1 120 3.26365 -72.1815 -48.5883
361 1 121 -86.4383 75.4266 -12.4562
362 2 121 -84.4383 75.4266 -12.4562
363 1 121 -83.4383 77.1587 -12.4562
364 1 122 71.9663 -44.3949 53.8538
365 2 122 73.9663 -44.3949 53.8538
366 1 122 74.9663 -42.6629 53.8538
367 1 123 -7.44937 70.2666 -15.7461
368 2 123 -5.44937 70.2666 -15.7461
369 1 123 -4.44937 71.9986 -15.7461
370 1 124 -8.24316 -24.2477 -87.0939
371 2 124 -6.24316 -24.2477 -87.0939
372 1 124 -5.24316 -22.5156 -87.0939
373 1 125 52.5355 -9.89603 65.4378
374 2 125 54.5355 -9.89603 65.4378
375 1 125 55.5355 -8.16398 65.4378
376 1 126 25.4638 77.2575 -88.3515
377 2 126 27.4638 77.2575 -88.3515
378 1 126 28.4638 78.9896 -88.3515
379 1 127 74.1456 -88.3928 8.04177
380 2 127 76.1456 -88.3928 8.04177
381 1 127 77.1456 -86.6607 8.04177
382 1 128 -19.2665 12.2875 79.8705
383 2 128 -17.2665 12.2875 79.8705
384 1 128 -16.2665 14.0195 79.8705
385 1 129 -36.4813 -50.3792 4.56996
386 2 129 -34.4813 -50.3792 4.56996
387 1 129 -33.4813 -48.6472 4.56996
388 1 130 -14.9471 38.1704 46.6958
389 2 130 -12.9471 38.1704 46.6958
390 1 130 -11.9471 39.9025 46.6958
391 1 131 15.501 2.15117 -28.9079
392 2 131 17.501 2.15117 -28.9079
393 1 131 18.501 3.88322 -28.9079
394 1 132 -31.0334 24.1574 86.5414
395 2 132 -29.0334 24.1574 86.5414
396 1 132 -28.0334 25.8894 86.5414
397 1 133 -0.493101 68.7823 48.0246
398 2 133 1.5069 68.7823 48.0246
399 1 133 2.5069 70.5143 48.0246
400 1 134 20.9948 17.7756 -80.0027
401 2 134 22.9948 17.7756 -80.0027
402 1 134 23.9948 19.5077 -80.0027
403 1 135 14.5312 81.6128 -70.3008
404 2 135 16.5312 81.6128 -70.3008
405 1 135 17.5312 83.3449 -70.3008
406 1 136 -4.49992 -52.321 69.4897
407 2 136 -2.49992 -52.321 69.4897
408 1 136 -1.49992 -50.5889 69.4897
409 1 137 45.6414 5.87402 -37.2445
410 2 137 47.6414 5.87402 -37.2445
411 1 137 48.6414 7.60607 -37.2445
412 1 138 -6.33562 28.3371 -18.4374
413 2 138 -4.33562 28.3371 -18.4374
414 1 138 -3.33562 30.0691 -18.4374
415 1 139 -4.95131 -82.6091 -69.8791
416 2 139 -2.95131 -82.6091 -69.8791
417 1 139 -1.95131 -80.877 -69.8791
418 1 140 0.583929 83.7407 -66.8639
419 2 140 2.58393 83.7407 -66.8639
420 1 140 3.58393 85.4728 -66.8639
421 1 141 -18.7 -76.8114 8.60763
422 2 141 -16.7 -76.8114 8.60763
423 1 141 -15.7 -75.0793 8.60763
424 1 142 -44.8125 -30.7398 -21.6215
425 2 142 -42.8125 -30.7398 -21.6215
426 1 142 -41.8125 -29.0077 -21.6215
427 1 143 -40.6019 -55.8177 -6.14127
428 2 143 -38.6019 -55.8177 -6.14127
429 1 143 -37.6019 -54.0857 -6.14127
430 1 144 -60.1522 57.0756 -28.1936
431 2 144 -58.1522 57.0756 -28.1936
432 1 144 -57.1522 58.8077 -28.1936
433 1 145 -68.5777 -86.1407 -46.2496
434 2 145 -66.5777 -86.1407 -46.2496
435 1 145 -65.5777 -84.4086 -46.2496
436 1 146 -13.646 -9.07056 89.3959
437 2 146 -11.646 -9.07056 89.3959
438 1 146 -10.646 -7.33851 89.3959
439 1 147 -73.8071 76.3997 34.9944
440 2 147 -71.8071 76.3997 34.9944
441 1 147 -70.8071 78.1317 34.9944
442 1 148 6.63746 14.4603 25.3476
443 2 148 8.63746 14.4603 25.3476
444 1 148 9.63746 16.1924 25.3476
445 1 149 48.8422 -54.2911 75.8708
446 2 149 50.8422 -54.2911 75.8708
447 1 149 51.8422 -52.559 75.8708
448 1 150 -65.9595 86.5431 41.2192
449 2 150 -63.9595 86.5431 41.2192
450 1 150 -62.9595 88.2752 41.2192
451 1 151 36.9224 28.5932 22.5151
452 2 151 38.9224 28.5932 22.5151
453 1 151 39.9224 30.3253 22.5151
454 1 152 16.543 3.70735 20.5449
455 2 152 18.543 3.70735 20.5449
456 1 152 19.543 5.4394 20.5449
457 1 153 -53.5468 35.073 63.7935
458 2 153 -51.5468 35.073 63.7935
459 1 153 -50.5468 36.805 63.7935
460 1 154 -16.6712 58.0184 -49.4184
461 2 154 -14.6712 58.0184 -49.4184
462 1 154 -13.6712 59.7504 -49.4184
463 1 155 -68.3489 8.14632 88.8261
464 2 155 -66.3489 8.14632 88.8261
465 1 155 -65.3489 9.87837 88.8261
466 1 156 -16.0465 48.6582 11.1288
467 2 156 -14.0465 48.6582 11.1288
468 1 156 -13.0465 50.3902 11.1288
469 1 157 85.0213 -82.6988 65.5582
470 2 157 87.0213 -82.6988 65.5582
471 1 157 88.0213 -80.9668 65.5582
472 1 158 22.6235 -87.2733 -87.0384
473 2 158 24.6235 -87.2733 -87.0384
474 1 158 25.6235 -85.5413 -87.0384
475 1 159 -34.1096 64.9675 -27.7616
476 2 159 -32.1096 64.9675 -27.7616
477 1 159 -31.1096 66.6996 -27.7616
478 1 160 -41.7553 -53.2841 -63.3372
479 2 160 -39.7553 -53.2841 -63.3372
480 1 160 -38.7553 -51.5521 -63.3372
481 1 161 -15.3169 58.622 -43.4742
482 2 161 -13.3169 58.622 -43.4742
483 1 161 -12.3169 60.3541 -43.4742
484 1 162 -82.4533 13.6727 2.72621
485 2 162 -80.4533 13.6727 2.72621
486 1 162 -79.4533 15.4048 2.72621
487 1 163 -87.1825 38.6101 31.7956
488 2 163 -85.1825 38.6101 31.7956
489 1 163 -84.1825 40.3421 31.7956
490 1 164 -13.8564 -71.3873 -27.7079
491 2 164 -11.8564 -71.3873 -27.7079
492 1 164 -10.8564 -69.6553 -27.7079
493 1 165 -45.6552 49.0083 -25.41
494 2 165 -43.6552 49.0083 -25.41
495 1 165 -42.6552 50.7404 -25.41
496 1 166 83.7317 -54.3526 67.6242
497 2 166 85.7317 -54.3526 67.6242
498 1 166 86.7317 -52.6206 67.6242
499 1 167 30.3942 48.3832 -85.5456
500 2 167 32.3942 48.3832 -85.5456
501 1 167 33.3942 50.1152 -85.5456
502 1 168 -71.8941 -87.2362 20.5999
503 2 168 -67.9805 11.1627 -4.32797
504 1 168 65.5138 63.6885 -24.8401
505 1 169 16.2964 51.0586 -86.3878
506 2 169 -60.9999 41.3751 69.3278
507 1 169 -32.1407 -11.8115 -80.6484
508 1 170 10.6045 76.1579 30.0169
509 2 170 24.1597 -51.9649 70.2292
510 1 170 49.4038 -24.8284 -48.471
511 1 171 77.2608 -10.9225 -64.1518
512 2 171 61.9835 -85.0273 26.5446
513 1 171 48.0675 -19.0214 75.8748
514 1 172 -34.4962 -38.8255 -72.6678
515 2 172 71.9066 67.3538 44.8481
516 1 172 89.3131 -78.0249 87.502
517 1 173 85.9159 -72.1723 -15.0954
518 2 173 86.4319 49.96 -38.9312
519 1 173 -76.987 -7.55574 59.1405
520 1 174 81.1051 -19.5808 -45.9127
521 2 174 67.8812 -7.01395 35.455
522 1 174 -80.6906 -42.4504 56.5015
523 1 175 25.0094 45.9567 -54.595
524 2 175 17.2263 2.19459 -50.0507
525 1 175 42.7395 28.845 31.1075
526 1 176 -59.1561 -73.4794 -63.2169
527 2 176 1.0396 -47.8548 37.1478
528 1 176 14.9959 -52.7953 0.778143
529 1 177 -0.536851 -32.525 -13.3912
530 2 177 -53.0832 -30.4225 -64.5664
531 1 177 61.2031 -48.9073 72.6957
532 1 178 63.5744 77.2482 53.2979
533 2 178 -5.55876 -19.4574 61.4738
534 1 178 54.3039 -45.9272 26.3411
535 1 179 -79.8064 89.9744 -74.4121
536 2 179 -80.6972 -57.445 -52.4158
537 1 179 85.1379 65.6277 41.526
538 1 180 20.5112 -73.6923 70.8359
539 2 180 -28.323 -26.3147 42.3659
540 1 180 40.7779 -11.9903 -27.0538
541 1 181 -82.2918 53.6535 -29.7834
542 2 181 -41.3081 -43.1483 23.4643
543 1 181 -5.61034 -25.7666 -30.3024
544 1 182 -34.1625 -54.3908 -15.8218
545 2 182 32.5624 86.1562 34.1541
546 1 182 -86.6765 -3.38507 -2.54144
547 1 183 -70.0303 40.204 72.6809
548 2 183 -27.1655 78.612 74.3837
549 1 183 24.4366 -17.5089 6.90688
550 1 184 73.5455 -35.315 45.0267
551 2 184 71.5971 84.9386 -55.1036
552 1 184 66.6828 -13.1966 -8.34182
553 1 185 10.915 -68.1927 -2.31602
554 2 185 -5.64708 -42.7915 -55.257
555 1 185 7.7548 -18.1661 -0.129268
556 1 186 -71.8928 35.7228 -81.7871
557 2 186 85.4276 -26.2113 -73.1003
558 1 186 83.7973 33.4722 89.4021
559 1 187 19.1109 10.8067 55.647
560 2 187 -27.0973 32.7254 -35.3726
561 1 187 -52.5094 38.5606 -41.6484
562 1 188 -68.1142 80.845 -21.9259
563 2 188 82.6429 47.8775 -32.7498
564 1 188 -79.528 22.0388 -67.5182
565 1 189 -1.63399 -51.1838 -20.0569
566 2 189 -6.9514 35.0488 -17.3374
567 1 189 82.0909 -25.3041 -22.869
568 1 190 41.1804 64.7698 -37.6069
569 2 190 -82.8987 -5.17744 1.50037
570 1 190 -6.29556 -62.2413 -26.7179
571 1 191 -86.2789 89.6151 48.2676
572 2 191 -76.3421 70.2055 -14.8875
573 1 191 84.9201 42.4472 0.769872
574 1 192 -57.7499 -30.3411 -35.1508
575 2 192 -1.30809 73.4555 68.9614
576 1 192 1.0171 -68.1487 -15.9629
577 1 193 -51.3465 67.8114 38.7147
578 2 193 44.9302 10.2672 68.011
579 1 193 -14.6696 15.3322 -79.2632
580 1 194 -42.1687 -59.3683 30.0356
581 2 194 -70.645 -17.7484 19.4679
582 1 194 62.7789 -72.1313 -11.0291
583 1 195 -58.9435 -2.65063 12.6397
584 2 195 1.86722 -59.0633 22.314
585 1 195 78.7115 -59.8967 -24.6686
586 1 196 -12.9777 -15.1306 42.4199
587 2 196 -72.4559 -4.28244 -83.964
588 1 196 17.9733 1.954 -36.4695
589 1 197 -46.6407 -36.1749 -44.9262
590 2 197 60.3668 -35.0596 64.4286
591 1 197 37.4322 -67.0311 75.3581
592 1 198 84.479 24.5872 -59.3277
593 2 198 88.7696 -23.9221 26.8674
594 1 198 71.7954 -1.75668 30.8196
595 1 199 -63.2659 44.8388 -77.6195
596 2 199 -63.8194 13.4019 54.5883
597 1 199 -76.3233 20.8021 -21.9912
598 1 200 -72.4067 18.0586 -35.8282
599 2 200 65.2536 -29.7639 31.1802
600 1 200 53.6449 -67.7688 -16.9646
601 1 201 -41.8163 41.5769 68.285
602 2 201 -20.0916 -72.9252 74.7313
603 1 201 -3.82441 82.8004 58.4045
604 1 202 -78.115 60.3678 27.2578
605 2 202 -78.2703 62.1071 25.1661
606 1 202 3.81872 53.2497 -69.2336
607 1 203 -55.3499 -31.7018 -47.7505
608 2 203 -19.9507 64.6411 14.5513
609 1 203 -47.8883 -33.4557 -29.4461
610 1 204 -15.9945 71.6856 24.5848
611 2 204 -74.0741 51.9963 -85.2429
612 1 204 43.8282 -85.3449 17.0003
613 1 205 -43.6235 46.1832 -59.2238
614 2 205 -78.4952 34.4484 49.3949
615 1 205 17.7925 -37.7089 5.74138
616 1 206 -26.1154 -60.8809 -14.9389
617 2 206 -5.23223 81.4132 64.6552
618 1 206 -22.6049 1.30292 -83.8693
619 1 207 -47.6569 -48.3336 -43.2495
620 2 207 -83.5078 31.1916 17.2143
621 1 207 -30.0443 4.06355 2.30161
622 1 208 37.3692 -26.857 -66.3204
623 2 208 48.0491 23.6356 -12.3747
624 1 208 -7.58324 76.9459 51.3502
625 1 209 29.3202 -34.3055 25.4909
626 2 209 -43.4478 69.0286 82.5851
627 1 209 88.5888 -16.3104 -5.99767
628 1 210 44.376 -48.7421 -7.38399
629 2 210 -79.3442 17.7157 71.7281
630 1 210 -43.037 37.9812 -30.8751
631 1 211 -59.6179 -17.6294 -87.5491
632 2 211 6.93226 -59.75 71.8427
633 1 211 43.9913 -10.8558 -39.7526
634 1 212 -26.7182 -18.9967 -13.5247
635 2 212 -45.2479 -46.4394 -7.72849
636 1 212 45.7078 -22.7432 9.45925
637 1 213 82.4704 -73.347 30.1326
638 2 213 -62.4148 -2.58063 -55.1476
639 1 213 64.0985 7.78068 -6.25371
640 1 214 18.5665 -21.9362 -68.8439
641 2 214 -34.7947 44.7967 -8.24886
642 1 214 50.6015 40.9352 11.9087
643 1 215 85.6348 57.3792 19.4229
644 2 215 15.6354 55.9987 -85.6301
645 1 215 88.8298 49.9185 -18.8128
646 1 216 -76.9538 42.241 47.6964
647 2 216 3.10955 -18.4808 50.7819
648 1 216 45.1253 52.4926 -34.5144
649 1 217 59.3249 -64.368 59.7899
650 2 217 40.1918 41.0721 -50.9179
651 1 217 -12.5172 -0.216756 -66.4957
652 1 218 -85.593 -30.5006 71.1976
653 2 218 -7.99999 -15.0054 10.9165
654 1 218 79.6177 21.3469 18.0311
655 1 219 15.046 -24.1052 53.3848
656 2 219 -0.863047 85.7816 -55.3398
657 1 219 18.9011 55.3926 26.7781
658 1 220 -5.1786 48.7358 25.8477
659 2 220 -25.9134 -36.1491 -52.7591
660 1 220 46.5678 43.4516 -12.6288
661 1 221 55.9635 -51.4032 9.19753
662 2 221 37.0967 -36.1365 -57.1577
663 1 221 -34.0132 -83.5257 22.0093
664 1 222 -82.9287 -19.8044 -14.4033
665 2 222 -11.6214 40.7422 -14.8044
666 1 222 -0.300713 -43.081 24.5084
667 1 223 -11.4424 -40.4539 -85.8893
668 2 223 83.8433 -46.8604 70.5941
669 1 223 12.501 87.5379 -68.8015
670 1 224 49.4474 46.8433 4.71983
671 2 224 -8.47502 -72.737 -75.0476
672 1 224 -4.52227 5.56311 27.0946
673 1 225 -83.2518 -3.93701 -20.7471
674 2 225 -22.9643 -60.2723 -81.4106
675 1 225 -12.6625 -87.0102 -33.5538
676 1 226 -9.75096 88.4631 -30.1246
677 2 226 -5.96318 -57.1931 -47.0908
678 1 226 55.4882 42.2788 -26.5447
679 1 227 -5.44574 -55.6847 -70.3302
680 2 227 -9.51749 87.3469 45.8681
681 1 227 88.6383 -32.6898 9.00024
682 1 228 23.2368 33.2969 -25.574
683 2 228 -41.5875 -81.4238 -38.6212
684 1 228 -55.6559 58.3248 14.7013
685 1 229 -1.18575 63.1371 -23.6463
686 2 229 45.9153 21.0492 43.9061
687 1 229 44.3372 30.3488 -47.8533
688 1 230 20.3266 -41.9815 36.2068
689 2 230 -3.69161 69.1334 23.1392
690 1 230 -66.115 -44.2599 86.1905
691 1 231 41.6042 -37.1372 -12.1627
692 2 231 -71.506 -36.2261 -12.6167
693 1 231 -77.4171 -57.3131 49.8683
694 1 232 -57.2938 -1.85338 32.8999
695 2 232 78.1142 76.837 79.5669
696 1 232 -21.8962 28.9208 -64.0145
697 1 233 46.8653 -10.0331 3.32789
698 2 233 76.2097 -78.2758 56.618
699 1 233 59.8427 12.9962 74.0667
700 1 234 77.9831 -11.2164 -60.7688
701 2 234 -4.21055 -9.75225 -26.4221
702 1 234 -27.4605 -73.0881 76.5171
703 1 235 83.8281 22.0847 -22.8877
704 2 235 78.2081 71.963 67.4079
705 1 235 -46.2961 -58.5183 3.79364
706 1 236 58.728 38.8161 41.1964
707 2 236 71.0756 -34.461 6.89362
708 1 236 -63.2358 -85.5938 -16.4972
709 1 237 15.0954 0.910763 16.0504
710 2 237 -64.0952 -75.5337 -56.4718
711 1 237 83.2739 -36.2865 21.3179
712 1 238 12.0981 45.5573 55.9707
713 2 238 38.5886 9.66654 -37.7098
714 1 238 -52.4037 -60.9969 -35.2068
715 1 239 -78.173 41.7861 -7.23159
716 2 239 -0.174201 -39.1036 -71.1234
717 1 239 -12.8209 4.19794 -63.2164
718 1 240 -86.9097 -41.4297 33.8415
719 2 240 -71.1341 -38.3923 18.3037
720 1 240 30.3547 -3.73064 11.2181
721 1 241 89.9875 -47.2901 31.1732
722 2 241 33.9263 38.3134 5.14706
723 1 241 -74.1276 -89.3164 77.9994
724 1 242 -41.1374 -45.7096 0.199203
725 2 242 -12.6461 51.6836 -59.5165
726 1 242 73.6539 10.6424 27.7002
727 1 243 69.8414 -50.5402 63.8353
728 2 243 23.2444 74.6424 7.61109
729 1 243 59.4253 -12.6896 -31.4963
730 1 244 -53.576 -7.25054 56.3954
731 2 244 2.46704 -64.8211 -86.939
732 1 244 34.4517 58.6995 -37.9779
733 1 245 85.6797 -50.3617 -53.0792
734 2 245 -50.6423 -1.57043 69.7776
735 1 245 65.4072 -27.459 5.18399
736 1 246 29.8705 -6.60459 87.5825
737 2 246 -49.76 -52.0577 21.6434
738 1 246 -71.4092 -27.3009 77.208
739 1 247 89.7715 24.8284 58.0712
740 2 247 -62.0971 -9.14232 -36.0905
741 1 247 39.681 17.7432 48.4421
742 1 248 21.5945 -12.3975 8.68352
743 2 248 8.07397 -87.3915 -25.9888
744 1 248 8.03287 -84.0977 -26.4209
745 1 249 1.43647 -24.6282 9.50079
746 2 249 -74.5523 55.9658 -83.8094
747 1 249 73.2307 -65.5211 42.8115
748 1 250 -10.1094 14.0634 26.8425
749 2 250 -83.9158 60.0934 36.1368
750 1 250 -83.9889 -54.9355 63.4921
751 1 251 -65.2069 7.16587 -37.7377
752 2 251 84.4672 -14.9238 15.6037
753 1 251 -67.3212 81.1373 -33.2299
754 1 252 -7.18342 -3.47536 -5.4328
755 2 252 41.9343 -71.8037 -56.6693
756 1 252 7.40669 76.5295 -20.9481
757 1 253 8.38943 66.7193 -16.9891
758 2 253 -61.8085 47.1577 -11.444
759 1 253 -29.3649 31.2103 -56.1873
760 1 254 -47.0226 16.2342 37.9708
761 2 254 5.26904 87.2881 -36.3697
762 1 254 -45.3209 -22.264 -16.2575
763 1 255 88.4938 -20.433 -1.10555
764 2 255 -38.6695 78.2478 -73.9327
765 1 255 1.92084 38.4227 18.9577
766 1 256 -45.6035 38.2121 -82.0591
767 2 256 -88.0156 11.5213 21.3845
768 1 256 74.5385 6.79574 -26.4526
769 1 257 9.95507 -43.5868 -21.6316
770 2 257 -10.1348 89.3531 -50.8957
771 1 257 26.1907 58.6477 -80.821
772 1 258 -46.9873 -6.10548 16.2227
773 2 258 68.3029 -46.4086 -62.6243
774 1 258 49.6451 -21.7476 72.0181
775 1 259 -74.8968 -79.7247 17.2239
776 2 259 65.1255 6.48761 -82.5732
777 1 259 -57.6269 -41.9298 -20.1557
778 1 260 -86.8164 49.9453 -35.9355
779 2 260 -65.876 -80.3735 -12.6743
780 1 260 -28.5273 -6.34601 80.7857
781 1 261 -9.21015 83.3457 85.0893
782 2 261 16.2551 -64.8435 86.1003
783 1 261 74.4865 -80.8861 68.7181
784 1 262 -20.5529 -36.4751 10.9686
785 2 262 -81.8745 -40.5862 -37.4755
786 1 262 15.9025 -78.3064 -72.1428
787 1 263 80.8274 37.129 -43.6292
788 2 263 -64.0003 -75.452 -47.058
789 1 263 68.9912 -47.7506 -31.4938
790 1 264 86.1188 13.8948 -56.9015
791 2 264 -73.6983 -36.9788 -9.96974
792 1 264 -87.4175 12.7459 8.2502
793 1 265 -25.7697 28.7578 -59.7483
794 2 265 19.4982 10.7397 -27.8713
795 1 265 0.388162 -19.027 43.9748
796 1 266 82.8996 84.1319 -89.1338
797 2 266 2.30675 -49.8599 -61.6541
798 1 266 -4.48031 -12.5322 -53.4292
799 1 267 28.0658 -83.4382 80.5486
800 2 267 -66.3702 -5.75156 -39.0421
801 1 267 -2.70313 -5.88875 87.3275
802 1 268 66.2552 -59.7478 59.7719
803 2 268 -50.446 32.1957 19.5291
804 1 268 -4.89065 -47.3912 -19.2059
805 1 269 -29.1436 38.3546 -41.9694
806 2 269 53.2876 19.0927 -9.54339
807 1 269 51.7318 -41.9179 -88.8645
808 1 270 2.10488 8.46254 -7.79904
809 2 270 -30.5895 -6.42424 -32.3915
810 1 270 29.8965 -64.9162 24.0875
811 1 271 -74.9938 68.1836 -13.7517
812 2 271 -57.7441 39.6305 -34.3891
813 1 271 23.2713 3.61886 -12.059
814 1 272 -81.3609 65.9554 -68.829
815 2 272 17.1306 75.2279 7.30343
816 1 272 -15.8191 36.9671 25.8493
817 1 273 30.3959 25.9487 53.011
818 2 273 21.6464 4.74088 73.2868
819 1 273 7.83331 -36.4549 -7.16488
820 1 274 -77.7144 8.54111 -65.2823
821 2 274 15.9182 48.5471 15.962
822 1 274 17.7012 -56.5714 -7.67089
823 1 275 -88.2695 -24.3131 -87.5682
824 2 275 26.5277 67.8378 -53.3148
825 1 275 -19.0322 -5.20275 59.1348
826 1 276 85.6239 -46.0404 -72.8439
827 2 276 0.784246 43.125 81.0158
828 1 276 12.1343 -36.8969 -17.5706
829 1 277 -5.76087 -39.6596 70.1211
830 2 277 -17.0574 -58.3671 -74.5473
831 1 277 44.2829 79.2808 75.9847
832 1 278 64.5319 -74.4461 43.5505
833 2 278 61.7443 -79.7449 -5.13644
834 1 278 -38.7794 26.4268 61.6455
835 1 279 16.002 35.1739 79.4226
836 2 279 85.3365 66.6515 -8.01603
837 1 279 -20.6577 42.239 0.145301
838 1 280 0.706263 58.5841 -11.8405
839 2 280 40.5825 55.3123 -24.4983
840 1 280 67.0581 -57.4957 -87.1667
841 1 281 24.4092 -65.6437 37.7667
842 2 281 -60.491 83.2707 78.9678
843 1 281 51.8862 -73.7157 59.0373
844 1 282 -55.654 65.0394 54.1974
845 2 282 31.534 78.2953 75.379
846 1 282 -39.9433 -5.3912 74.4442
847 1 283 6.48294 -37.0941 88.0895
848 2 283 -11.1427 78.2304 55.8955
849 1 283 -4.29969 44.5149 -57.9122
850 1 284 -44.8876 52.465 -20.8073
851 2 284 0.918665 -35.2645 30.4748
852 1 284 28.5353 47.974 53.328
853 1 285 71.8783 87.0796 74.2514
854 2 285 0.232992 -66.3008 74.2607
855 1 285 -71.2672 26.476 -60.648
856 1 286 17.7957 -33.7317 55.6808
857 2 286 -41.4257 26.7143 -4.50815
858 1 286 -48.7544 71.0765 87.7101
859 1 287 -14.9351 71.6345 66.5198
860 2 287 -59.7792 -32.9923 72.6913
861 1 287 13.5107 -52.3678 -88.2912
862 1 288 61.3727 43.7142 -59.8151
863 2 288 89.0963 -86.5986 -37.5304
864 1 288 64.8341 -56.095 72.5877
865 1 289 -43.7313 71.1129 20.7477
866 2 289 40.1358 71.8801 45.295
867 1 289 -56.1092 18.0654 -77.7589
868 1 290 69.4842 80.05 -33.0271
869 2 290 41.7968 -80.4956 -22.8398
870 1 290 67.8185 14.6673 22.5193
871 1 291 29.129 45.5898 -32.2201
872 2 291 -63.3882 32.2228 -89.9498
873 1 291 4.73122 82.5051 80.6089
874 1 292 70.6473 -29.8935 -74.6619
875 2 292 -79.8074 -41.2733 73.789
876 1 292 -43.3924 -50.9105 -21.4824
877 1 293 58.6566 35.601 88.8458
878 2 293 -79.265 -20.1222 -62.4644
879 1 293 76.1533 -42.4533 1.08456
880 1 294 -13.6597 -26.3597 84.7018
881 2 294 -64.3553 18.2829 36.7349
882 1 294 -67.4941 87.5944 -50.8393
883 1 295 -65.1166 -22.1595 -79.4879
884 2 295 84.8113 85.3334 -13.7485
885 1 295 -10.9852 46.7332 -9.1739
886 1 296 -30.7817 -58.4712 -45.1941
887 2 296 67.4617 -59.7929 73.1835
888 1 296 24.6007 -23.4803 83.2402
889 1 297 77.578 -46.9341 15.7636
890 2 297 59.245 50.1988 -81.8621
891 1 297 26.6343 -75.5181 45.2644
892 1 298 65.1586 66.8526 -65.859
893 2 298 50.4522 51.6332 8.5439
894 1 298 -52.1622 -76.4912 -66.3201
895 1 299 -36.868 -43.3574 -51.3707
896 2 299 80.2089 23.7051 -38.5444
897 1 299 88.2444 49.5055 -3.46279
898 1 300 46.9152 71.0168 -8.42243
899 2 300 -52.6781 27.2719 63.6334
900 1 300 -46.0203 -14.117 48.7221
901 1 301 68.8993 -12.6133 -18.6901
902 2 301 6.82622 -6.74257 -29.7556
903 1 301 54.4995 -13.3777 5.00154
904 1 302 -16.8236 54.8643 -87.9439
905 2 302 1.16334 61.1346 10.5968
906 1 302 -26.047 85.7954 73.0398
907 1 303 59.4483 67.152 -77.1299
908 2 303 82.1095 -32.2095 84.7969
909 1 303 70.4786 24.617 -48.3429
910 1 304 -32.9122 -4.82614 -1.54387
911 2 304 -79.2823 63.9313 17.8547
912 1 304 43.4143 -77.9785 52.9566
913 1 305 51.3427 -32.5379 54.2002
914 2 305 35.0223 -2.47181 27.3961
915 1 305 -34.8001 16.3413 -79.3533
916 1 306 -2.58111 21.0988 -67.7305
917 2 306 57.1489 -85.7314 60.1885
918 1 306 77.4206 65.0792 63.6127
919 1 307 -75.0189 -8.91601 -12.6292
920 2 307 82.4015 63.1513 -81.088
921 1 307 -25.1515 -71.0505 -9.821
922 1 308 -51.1027 59.7607 -5.4521
923 2 308 89.3063 -28.2602 56.2968
924 1 308 78.2267 5.76126 -24.3882
925 1 309 -54.9438 84.5159 14.9505
926 2 309 -2.47838 -57.8107 -67.5309
927 1 309 70.7877 -25.3387 -23.088
928 1 310 69.7876 41.644 -56.2275
929 2 310 -14.5685 66.5384 31.8792
930 1 310 76.6154 -79.936 -18.4761
931 1 311 -88.5586 -16.5845 2.60165
932 2 311 26.1687 42.6909 -64.8504
933 1 311 58.7753 53.7231 8.60522
934 1 312 -57.7916 -39.9292 -76.4317
935 2 312 86.851 84.7961 19.1792
936 1 312 88.9126 -68.9285 -28.6648
937 1 313 53.3877 81.8315 52.8477
938 2 313 89.1069 -63.6697 27.0714
939 1 313 10.2689 57.4866 -67.2635
940 1 314 84.3674 33.3494 77.9889
941 2 314 6.964 37.2666 -89.4083
942 1 314 14.0024 66.0174 0.963963
943 1 315 89.7223 28.1784 78.6459
944 2 315 83.8699 17.1777 81.6295
945 1 315 40.3878 -36.3576 37.5803
946 1 316 81.6277 -46.8031 54.2015
947 2 316 -33.2969 -30.7457 16.3572
948 1 316 87.9895 -86.5856 -46.7601
949 1 317 -10.5837 -86.1068 1.0537
950 2 317 7.09511 -29.8846 -44.8929
951 1 317 -79.6489 -68.5788 -74.1751
952 1 318 0.0442439 -51.0128 6.94047
953 2 318 -85.2373 -41.3637 40.1065
954 1 318 -18.5908 -62.2779 34.2884
955 1 319 -38.4421 -84.9394 -17.4979
956 2 319 -15.7806 69.0655 62.3489
957 1 319 -21.2882 -80.275 31.1605
958 1 320 -52.0697 -5.50256 84.7276
959 2 320 14.8099 59.6008 -23.9787
960 1 320 63.6366 -71.0506 64.6238
961 1 321 -26.4092 2.96653 63.1931
962 2 321 43.9593 60.3611 39.3479
963 1 321 -23.3209 87.9244 -65.4256
964 1 322 -83.4874 2.89848 -45.0401
965 2 322 16.2783 4.1852 32.1968
966 1 322 45.0924 82.1759 1.33728
967 1 323 7.52512 -0.861688 17.6452
968 2 323 -87.7806 55.61 78.1811
969 1 323 43.4084 16.7663 -21.0551
970 1 324 -86.0391 -11.8324 79.4486
971 2 324 63.8732 -32.0424 48.3339
972 1 324 39.7103 68.6067 -18.7263
973 1 325 19.5343 19.5965 4.59875
974 2 325 75.4537 74.5306 27.1156
975 1 325 55.6911 -59.5695 3.28714
976 1 326 75.4185 58.4825 57.82
977 2 326 65.8422 26.7967 -81.3573
978 1 326 -46.0379 86.9403 14.8661
979 1 327 -33.7488 77.9945 -61.1693
980 2 327 86.7313 10.2571 19.9775
981 1 327 -82.479 -2.41757 65.8147
982 1 328 -45.5317 -50.7471 59.2653
983 2 328 0.152563 49.4183 -89.2013
984 1 328 66.7469 4.86828 23.4842
985 1 329 77.8447 36.6261 -83.829
986 2 329 -33.233 66.0363 -3.41813
987 1 329 78.9857 -11.6329 -56.8936
988 1 330 -41.8346 7.57424 75.6453
989 2 330 22.8575 -51.1962 24.3825
990 1 330 10.923 -49.3392 -42.4983
991 1 331 42.3035 1.44607 -89.1578
992 2 331 -70.1963 -35.2174 0.108541
993 1 331 -9.41212 12.7916 14.0811
994 1 332 59.9044 31.8606 35.9277
995 2 332 -17.8031 -40.8997 16.5329
996 1 332 60.7695 17.2799 0.160109
997 1 333 -26.4155 52.6346 52.5582
998 2 333 -59.0593 41.5056 1.91913
999 1 333 -54.5476 69.7915 -79.3588
1000 1 334 -70.3246 62.6458 58.1782
1001 2 334 38.0273 -23.9715 -77.3321
1002 1 334 9.26485 49.2196 -25.95
1003 1 335 30.1729 78.3837 44.054
1004 2 335 -4.72733 62.5448 -8.80489
1005 1 335 10.4447 67.4316 -87.0335
1006 1 336 -30.3464 36.9261 -36.8067
1007 2 336 -35.9443 81.6525 55.6957
1008 1 336 -50.7565 7.18246 -76.163
1009 1 337 39.7871 38.643 83.8442
1010 2 337 19.1444 -10.6175 -6.14616
1011 1 337 -33.5896 -41.7656 64.4556
1012 1 338 -64.1137 -8.58044 -65.9335
1013 2 338 86.0729 -61.1394 -44.9961
1014 1 338 60.867 33.3157 6.84427
1015 1 339 -71.0217 -75.9551 30.0048
1016 2 339 0.59917 -8.75753 75.364
1017 1 339 -50.7323 19.721 3.57522
1018 1 340 68.5768 -58.2188 28.6396
1019 2 340 59.1416 55.9386 -71.011
1020 1 340 89.9889 -58.2364 -24.75
1021 1 341 -47.9589 67.855 -43.8622
1022 2 341 72.4735 42.2573 -58.5464
1023 1 341 -34.5379 -39.5108 68.4158
1024 1 342 28.6368 -44.0704 -80.1693
1025 2 342 65.3238 19.005 -22.1124
1026 1 342 -63.0285 18.5633 29.4118
1027 1 343 -81.0684 -33.2319 -18.4998
1028 2 343 -0.607803 -21.7239 66.7587
1029 1 343 -50.3129 60.6286 -34.4765
1030 1 344 -69.6893 35.4985 -29.7518
1031 2 344 -46.0302 -6.61821 38.9771
1032 1 344 65.9846 -39.8836 -85.0703
1033 1 345 -15.2838 54.564 -34.6348
1034 2 345 -5.70189 -85.8102 13.6729
1035 1 345 38.224 33.9444 -10.0438
1036 1 346 -14.0755 -59.858 -82.223
1037 2 346 -57.2968 73.396 -0.922752
1038 1 346 45.9689 -4.57025 -35.7454
1039 1 347 -2.64381 -48.1913 33.7048
1040 2 347 -3.20826 -88.0795 27.5169
1041 1 347 -24.8529 50.299 -32.6879
1042 1 348 -46.4417 -34.1295 45.8111
1043 2 348 -7.72237 -43.703 70.0453
1044 1 348 85.6889 6.7086 -15.7052
1045 1 349 -81.8592 -43.8563 -70.8643
1046 2 349 -10.8516 -48.1972 -45.4879
1047 1 349 26.7591 -48.6621 20.3592
1048 1 350 26.6651 -75.7837 80.2837
1049 2 350 -22.3329 -9.68035 -86.5371
1050 1 350 -74.7371 -84.9791 -11.963
1051 1 351 -16.6962 68.1321 2.57665
1052 2 351 72.7291 -3.65629 58.9923
1053 1 351 48.87 -81.0666 -30.853
1054 1 352 57.0807 -28.8641 -28.5592
1055 2 352 -65.0748 63.8851 17.4907
1056 1 352 42.3051 -73.3967 -45.1656
1057 1 353 4.06539 84.4776 -32.4911
1058 2 353 -81.2737 -11.6524 -10.4
1059 1 353 -57.3208 -82.9476 80.1565
1060 1 354 -74.1655 -49.7806 -41.6065
1061 2 354 79.2082 -32.573 29.8867
1062 1 354 -14.6226 51.2232 -46.212
1063 1 355 -87.9937 21.8859 52.3454
1064 2 355 3.2233 -70.0532 -47.3179
1065 1 355 -73.2801 24.6074 -71.1986
1066 1 356 10.4007 -60.6149 37.7133
1067 2 356 40.529 64.8665 21.9589
1068 1 356 24.6553 -46.2182 60.966
1069 1 357 53.1397 30.6309 53.9808
1070 2 357 -72.3805 -78.1923 -62.7588
1071 1 357 35.6464 39.6966 -16.1789
1072 1 358 -59.9933 76.364 -38.0146
1073 2 358 -44.8344 15.7711 -45.9146
1074 1 358 -27.722 -14.8526 66.5708
1075 1 359 80.4357 78.8077 25.712
1076 2 359 -40.969 15.1023 69.5331
1077 1 359 -60.8906 -21.1585 -45.5654
1078 1 360 19.7624 -11.948 -85.7475
1079 2 360 -16.7318 33.8004 -48.1991
1080 1 360 29.8241 -27.9156 80.1808
1081 1 361 -22.0594 8.48784 74.5969
1082 2 361 -72.805 59.9269 5.89002
1083 1 361 -9.12741 -88.0962 -84.2725
1084 1 362 2.24192 76.5005 -63.7861
1085 2 362 -11.9967 4.87 20.7294
1086 1 362 -52.3886 -75.4992 -62.6261
1087 1 363 18.6609 -68.2702 -34.9247
1088 2 363 27.3653 -60.2223 -53.0668
1089 1 363 -17.8695 -67.8461 18.1767
1090 1 364 27.4642 31.3015 -57.7232
1091 2 364 52.0274 -12.9919 26.1085
1092 1 364 -73.3095 -60.9127 75.1378
1093 1 365 49.2887 -73.7899 86.5461
1094 2 365 72.4006 89.4242 -41.2567
1095 1 365 -84.4486 -83.3588 60.6139
1096 1 366 54.234 16.6459 -43.7444
1097 2 366 44.0343 -43.5092 -3.14285
1098 1 366 -52.6083 1.35579 -87.246
1099 1 367 -56.8111 55.8975 27.3661
1100 2 367 28.3111 27.5615 -30.6045
1101 1 367 -22.8297 -13.7372 51.2338
1102 1 368 -42.0533 -53.2031 11.3603
1103 2 368 -60.887 66.5308 -73.8185
1104 1 368 -7.86759 -44.974 -10.2021
1105 1 369 -8.44966 -19.5291 79.5131
1106 2 369 -38.0954 -65.3209 -42.6922
1107 1 369 -16.2866 -52.9763 -63.7239
1108 1 370 -53.828 -58.4689 39.6246
1109 2 370 -41.1434 -18.8317 5.37338
1110 1 370 72.9783 -58.6207 50.1574
1111 1 371 5.93152 19.6353 50.6555
1112 2 371 1.00037 46.6316 40.2689
1113 1 371 -51.5231 -32.3091 26.1262
1114 1 372 -23.0656 26.0175 13.2724
1115 2 372 -47.2142 -4.47458 -42.7877
1116 1 372 -15.1795 -71.8794 34.5785
1117 1 373 -17.0814 1.46862 -31.3425
1118 2 373 73.0223 56.0163 -77.575
1119 1 373 -79.3575 4.29453 -89.2166
1120 1 374 -17.0051 -86.9469 73.7335
1121 2 374 -62.5349 56.6347 -32.6609
1122 1 374 -2.97736 -72.5334 11.645
1123 1 375 -43.4445 89.6275 -34.0823
1124 2 375 73.588 -80.4589 39.7662
1125 1 375 35.5952 -18.1852 48.4354
1126 1 376 -55.2539 55.6284 23.4309
1127 2 376 55.9946 -42.3189 -23.6269
1128 1 376 -42.6675 29.7828 -15.6601
1129 1 377 0.120564 -13.1201 -87.2167
1130 2 377 35.5561 50.1683 77.2174
1131 1 377 63.9609 -11.4001 46
1132 1 378 -49.7958 -34.0588 -1.72033
1133 2 378 47.556 -53.8602 30.384
1134 1 378 -24.5345 -77.9677 -6.70056
1135 1 379 53.7323 -20.4769 -73.6019
1136 2 379 -56.6787 -88.0545 13.4973
1137 1 379 1.06395 45.2741 24.3155
1138 1 380 -56.4562 47.503 -53.0172
1139 2 380 52.5545 -44.5348 -87.4339
1140 1 380 -42.2206 -24.3224 -18.5044
1141 1 381 82.1708 -60.2222 -42.0869
1142 2 381 69.3345 -86.3579 -11.4619
1143 1 381 -49.3086 -24.9949 59.8926
1144 1 382 -50.0702 34.338 -31.8026
1145 2 382 -42.4785 16.9033 -53.1306
1146 1 382 -1.01237 5.88344 49.548
1147 1 383 -29.598 43.1099 87.9426
1148 2 383 -79.791 -25.8516 -58.2297
1149 1 383 22.2756 -85.9136 24.0045
1150 1 384 -21.5584 -84.6698 46.0209
1151 2 384 80.1968 37.3095 65.6375
1152 1 384 4.63641 -4.80432 -86.5537
1153 1 385 -71.2064 33.813 81.9955
1154 2 385 3.34183 -45.8122 -2.48696
1155 1 385 62.3432 79.4694 -38.1502
1156 1 386 1.98099 79.8032 61.5898
1157 2 386 51.476 51.2389 -51.3233
1158 1 386 65.4886 11.3125 12.7629
1159 1 387 5.72077 -74.5429 -88.3542
1160 2 387 -3.807 32.0749 -19.389
1161 1 387 19.9195 48.3951 42.7089
1162 1 388 -28.7138 20.5805 61.602
1163 2 388 -59.8131 67.3254 66.5632
1164 1 388 67.4318 -76.8051 26.936
1165 1 389 29.4676 74.9834 58.5951
1166 2 389 12.3107 8.16579 -44.9832
1167 1 389 13.0018 -31.2615 -82.6081
1168 1 390 75.1923 -21.071 -67.0112
1169 2 390 28.8929 27.1713 -16.032
1170 1 390 -47.9511 63.799 -44.2709
1171 1 391 6.44368 60.5596 50.4339
1172 2 391 -45.0139 13.0061 -73.1349
1173 1 391 15.9866 47.058 26.0259
1174 1 392 22.809 21.7014 72.8668
1175 2 392 49.6526 -41.7177 -68.6927
1176 1 392 50.0633 -86.0904 -60.3991
1177 1 393 -42.0056 -68.6005 -32.1795
1178 2 393 32.3385 -27.1223 -87.0191
1179 1 393 -54.816 -84.2154 -47.8073
1180 1 394 1.57008 -11.7802 -55.7452
1181 2 394 38.7232 79.7032 -44.4128
1182 1 394 -82.4556 25.0935 37.5674
1183 1 395 -49.7092 9.61651 -56.0515
1184 2 395 63.3459 25.7674 84.4012
1185 1 395 5.0481 -59.2577 -23.7863
1186 1 396 -72.4489 -59.7531 -52.6727
1187 2 396 -88.3909 81.8281 -65.4911
1188 1 396 -34.6759 -19.0916 72.3916
1189 1 397 -48.8393 -62.1874 85.8791
1190 2 397 -29.9977 66.6884 -61.1795
1191 1 397 -31.1257 15.336 -2.06902
1192 1 398 -47.0892 -41.0826 25.0705
1193 2 398 14.5237 30.7227 35.8163
1194 1 398 87.3734 -81.5419 46.1694
1195 1 399 21.4232 -23.065 -21.8153
1196 2 399 71.0975 58.844 32.8175
1197 1 399 -60.6311 -87.188 -72.5013
1198 1 400 30.0052 -6.02304 73.3466
1199 2 400 -78.4534 15.2725 69.8514
1200 1 400 -46.2712 18.4684 -21.9494
1201 1 401 13.7441 10.6235 11.7201
1202 2 401 -25.2828 -65.2926 -88.5794
1203 1 401 -81.4332 56.3215 -48.4014
1204 1 402 -50.7633 21.3154 -47.14
1205 2 402 40.6825 -12.1759 -34.4725
1206 1 402 59.2466 86.2681 73.2379
1207 1 403 29.7776 72.0169 47.9619
1208 2 403 -31.1504 -21.1158 -53.8971
1209 1 403 4.774 55.2783 -72.1918
1210 1 404 -72.9484 -63.4039 40.9158
1211 2 404 3.60166 85.0482 -40.3246
1212 1 404 75.3073 67.1366 -31.9816
1213 1 405 37.2961 -27.2162 35.427
1214 2 405 -30.8916 77.0345 -56.4685
1215 1 405 -74.1254 -25.0686 5.47274
1216 1 406 60.6198 47.556 63.3567
1217 2 406 -62.9424 -66.751 15.4252
1218 1 406 13.8756 7.39505 67.5279
1219 1 407 -27.9799 35.3706 16.7378
1220 2 407 47.3167 -25.39 -27.5351
1221 1 407 -44.5468 -37.1258 36.1786
1222 1 408 -6.16311 -0.313756 -45.3534
1223 2 408 29.5386 -58.0744 49.9022
1224 1 408 -34.353 74.7788 28.2623
1225 1 409 -84.1353 26.1313 38.2674
1226 2 409 1.32188 41.4655 -13.0398
1227 1 409 -74.4258 -70.6022 38.8029
1228 1 410 -46.0692 58.3787 26.412
1229 2 410 -80.7176 50.6683 39.4911
1230 1 410 76.5024 73.7725 29.9189
1231 1 411 48.2767 -61.8362 35.2512
1232 2 411 44.9386 -26.5262 80.3462
1233 1 411 -76.4311 -59.0348 -88.1165
1234 1 412 -61.5685 49.3517 56.0897
1235 2 412 54.8634 -15.3873 -26.1769
1236 1 412 44.8527 48.0008 -71.6935
1237 1 413 -47.1541 80.0851 15.3049
1238 2 413 81.481 29.7398 42.1529
1239 1 413 12.1577 -50.8715 13.8735
1240 1 414 -51.3803 48.7062 42.9752
1241 2 414 75.4264 -81.0102 -72.7637
1242 1 414 22.5408 -65.8187 42.0089
1243 1 415 4.96931 42.1518 -1.90117
1244 2 415 -7.74244 -0.0450371 56.2973
1245 1 415 -33.6051 -81.3443 -47.952
1246 1 416 70.6607 -38.1741 -74.247
1247 2 416 74.741 -12.9399 -11.3913
1248 1 416 -3.596 48.1776 32.5274
1249 1 417 -55.0807 3.44566 51.8231
1250 2 417 53.6904 56.515 85.0465
1251 1 417 11.9617 -24.6146 60.2055
1252 1 418 53.1675 -65.9535 40.7558
1253 2 418 85.6471 5.90844 84.3396
1254 1 418 -5.21989 76.9809 35.9426
1255 1 419 -3.20819 -41.2315 -68.0382
1256 2 419 -59.0635 76.197 7.00468
1257 1 419 20.3676 83.1357 -20.9152
1258 1 420 -44.1563 62.3185 -70.2432
1259 2 420 -84.0318 -25.4105 -72.5645
1260 1 420 15.4302 -6.07769 56.9638
1261 1 421 72.886 -58.9615 -83.7992
1262 2 421 67.7499 16.8501 -83.3024
1263 1 421 82.5309 -64.0106 5.57278
1264 1 422 -11.4082 -17.4477 -34.2708
1265 2 422 -42.4737 -75.7628 72.2148
1266 1 422 1.36971 -73.2324 53.5058
1267 1 423 -83.7009 -7.25104 -59.5779
1268 2 423 -12.7571 35.1791 -22.6567
1269 1 423 -46.8014 61.0972 -15.5971
1270 1 424 4.88293 28.6681 72.599
1271 2 424 -29.4205 75.5893 81.9111
1272 1 424 84.0069 -33.4597 17.7881
1273 1 425 69.5253 2.61592 -44.2507
1274 2 425 -37.4188 -20.1416 -79.4312
1275 1 425 34.9449 42.8389 9.42117
1276 1 426 14.0147 22.8763 -9.66791
1277 2 426 2.01588 17.1169 84.9969
1278 1 426 -33.0348 82.6076 -51.3835
1279 1 427 13.9176 16.5337 -24.1665
1280 2 427 -5.24357 9.1912 69.359
1281 1 427 9.34873 -2.88667 48.0931
1282 1 428 -71.8508 32.6238 -89.398
1283 2 428 89.8388 -84.4502 -29.9918
1284 1 428 -2.52517 -21.0759 74.0064
1285 1 429 -26.8705 -2.70384 -25.9049
1286 2 429 -13.6515 51.2202 3.03094
1287 1 429 -22.2504 63.1134 53.1997
1288 1 430 76.2779 35.3116 48.9368
1289 2 430 -13.5031 -87.0488 -72.8311
1290 1 430 53.798 -17.662 60.3068
1291 1 431 1.84963 24.01 17.6078
1292 2 431 48.1536 72.7666 17.2202
1293 1 431 -88.7079 -66.2159 -35.8651
1294 1 432 -41.611 77.2876 81.9502
1295 2 432 -56.6104 -58.7449 -11.8226
1296 1 432 52.4487 36.3744 -53.9755
1297 1 433 61.8149 -4.55133 -25.8678
1298 2 433 -51.9174 -77.1735 19.3506
1299 1 433 15.1475 -26.5825 39.0171
1300 1 434 6.15335 -1.83083 39.1545
1301 2 434 -31.4321 -19.6892 46.0399
1302 1 434 -56.7772 69.7028 78.8544
1303 1 435 -27.0855 29.7716 45.4689
1304 2 435 75.9272 36.9868 6.78786
1305 1 435 2.09086 1.24683 47.3752
1306 1 436 60.7811 -35.0575 22.0631
1307 2 436 11.5616 -89.8543 66.6872
1308 1 436 71.7311 -23.5835 1.09069
1309 1 437 -48.7083 -44.4679 -9.69501
1310 2 437 51.7413 -87.723 74.1779
1311 1 437 41.8142 -22.416 22.393
1312 1 438 73.8021 45.5662 84.624
1313 2 438 -34.4988 79.5959 86.465
1314 1 438 49.0765 40.7462 -21.9121
1315 1 439 -20.5926 24.5257 51.1639
1316 2 439 42.8952 41.4986 -63.731
1317 1 439 85.8534 -87.1429 -60.7233
1318 1 440 -4.54393 -2.73225 5.25558
1319 2 440 -8.87195 -6.61919 29.3101
1320 1 440 -15.2874 -16.0398 3.35532
1321 1 441 -78.4141 87.0764 -9.67584
1322 2 441 23.6974 60.8582 82.8888
1323 1 441 -86.8715 -11.3891 -63.7052
1324 1 442 -4.92413 -80.5201 51.3576
1325 2 442 10.7773 29.1413 71.0112
1326 1 442 -70.6785 79.2906 49.411
1327 1 443 85.3881 81.9317 52.5751
1328 2 443 -70.0224 -23.4373 -56.1501
1329 1 443 -55.5796 -10.4712 48.5744
1330 1 444 73.1757 66.8084 -18.5631
1331 2 444 -66.4232 39.2094 -4.27778
1332 1 444 -30.5551 -21.2231 -78.8301
1333 1 445 49.426 -71.0392 -13.9148
1334 2 445 4.12901 14.7428 -51.2247
1335 1 445 -9.18977 26.5155 -62.2319
1336 1 446 -45.8341 -64.1009 43.5019
1337 2 446 77.0373 -48.4339 -66.7007
1338 1 446 20.489 42.0943 -71.5678
1339 1 447 -26.2972 22.0507 0.706316
1340 2 447 87.8802 -29.7755 31.7465
1341 1 447 -25.4971 35.4405 -65.5201
1342 1 448 46.991 -37.3222 34.923
1343 2 448 55.9217 30.0789 -19.0134
1344 1 448 -3.96967 -37.9601 -87.8588
1345 1 449 33.3673 -76.657 81.4284
1346 2 449 9.95429 5.6353 89.9116
1347 1 449 -29.0998 -2.80766 -16.9911
1348 1 450 1.00744 59.805 42.9867
1349 2 450 69.2132 -82.0873 -39.6961
1350 1 450 32.8258 40.9142 47.9155
1351 1 451 63.5464 70.1956 -24.9294
1352 2 451 -82.5914 81.7656 19.0809
1353 1 451 2.31625 -53.2606 -59.8483
1354 1 452 -35.1318 -36.3052 -43.0647
1355 2 452 -73.5798 47.0647 -44.7401
1356 1 452 44.2608 49.8889 -39.0148
1357 1 453 -67.1545 -20.8605 -39.6228
1358 2 453 66.19 -35.1315 79.8108
1359 1 453 -69.3272 -74.6222 -15.5559
1360 1 454 88.1829 7.12889 -4.53063
1361 2 454 -28.0529 -84.8105 -3.98309
1362 1 454 -69.4964 -55.6661 -61.3388
1363 1 455 24.3598 -40.7952 -4.95757
1364 2 455 68.0645 15.015 -77.0897
1365 1 455 -41.3965 -84.0518 16.9715
1366 1 456 -6.73587 89.1669 -84.985
1367 2 456 -50.2766 -74.3562 -15.0315
1368 1 456 -77.6608 -49.5334 84.0923
1369 1 457 -17.8657 60.711 82.5848
1370 2 457 -27.6789 -34.1148 -62.8778
1371 1 457 5.79334 12.5245 -70.6923
1372 1 458 -35.5911 29.0702 56.1763
1373 2 458 18.612 -14.8577 -6.48613
1374 1 458 41.2208 -8.09916 -5.12624
1375 1 459 39.9468 -11.9352 52.4381
1376 2 459 -74.4923 28.2345 -41.6985
1377 1 459 59.3695 -48.8065 -50.5722
1378 1 460 28.7002 -3.73206 -22.3065
1379 2 460 37.3886 -87.8814 37.4074
1380 1 460 -60.541 77.8861 -66.2139
1381 1 461 72.8693 47.2548 -17.7476
1382 2 461 12.1965 -50.8477 -69.2573
1383 1 461 14.3782 -66.6043 27.7777
1384 1 462 60.6706 18.5671 80.2599
1385 2 462 26.8323 79.0759 35.4959
1386 1 462 -51.7716 14.3313 -89.8457
1387 1 463 82.9591 -89.1607 -36.9181
1388 2 463 -30.0874 18.1255 40.684
1389 1 463 55.279 26.5561 -69.4695
1390 1 464 64.0894 14.3633 -66.7811
1391 2 464 -3.35316 76.8609 16.332
1392 1 464 -35.633 58.5518 -3.29022
1393 1 465 25.7728 88.7011 -87.9789
1394 2 465 -9.79554 72.3462 9.71216
1395 1 465 46.5224 3.88613 3.5994
1396 1 466 64.5461 81.9789 -3.79096
1397 2 466 -3.77133 57.5043 -9.44726
1398 1 466 -37.1094 -30.187 -6.06567
1399 1 467 14.8332 78.5911 -59.7506
1400 2 467 -84.7003 66.9438 -87.0559
1401 1 467 -4.55922 57.6884 -73.1247
1402 1 468 84.0494 70.8711 79.8142
1403 2 468 -68.9385 -52.2003 28.5354
1404 1 468 -6.62841 -62.1597 45.3584
1405 1 469 9.05835 -52.5653 44.2353
1406 2 469 -30.8184 -43.6766 65.1079
1407 1 469 48.7168 -4.93943 38.9283
1408 1 470 -1.29603 77.3092 -72.9533
1409 2 470 -13.2197 70.9289 -47.34
1410 1 470 -36.9418 -58.3953 -72.0057
1411 1 471 54.0837 -64.045 61.1385
1412 2 471 85.5341 55.7342 -58.3516
1413 1 471 49.101 -85.4086 5.83743
1414 1 472 -11.2988 77.6145 22.734
1415 2 472 33.4302 -52.1703 -35.7726
1416 1 472 -80.3027 47.4112 58.136
1417 1 473 -38.5134 80.6688 -51.1728
1418 2 473 28.3737 -71.5289 -77.8751
1419 1 473 -43.5695 -45.2598 -46.4753
1420 1 474 -0.8369 29.528 -31.8195
1421 2 474 -69.7669 51.1895 44.2985
1422 1 474 -86.818 -58.2546 -88.9571
1423 1 475 19.7165 -50.815 -10.8663
1424 2 475 -11.821 83.8207 64.2702
1425 1 475 -87.9598 -26.8423 8.91053
1426 1 476 0.720268 -74.1969 -68.8697
1427 2 476 6.1344 28.7403 61.0431
1428 1 476 6.31392 48.1451 -62.4603
1429 1 477 -19.7615 -64.2209 68.04
1430 2 477 8.91919 -62.5862 4.07642
1431 1 477 -36.3525 24.8638 7.51465
1432 1 478 39.4581 21.5221 42.9956
1433 2 478 -47.0396 -57.8893 -66.3069
1434 1 478 -69.2012 -56.3885 10.7393
1435 1 479 -53.6462 -34.6574 34.6621
1436 2 479 -80.1309 64.1234 -38.3496
1437 1 479 -75.0502 -46.915 31.3433
1438 1 480 44.9939 -81.0676 40.3366
1439 2 480 5.55528 9.77047 57.5456
1440 1 480 54.7834 -85.1344 66.5731
1441 1 481 46.4564 -20.522 -28.8462
1442 2 481 -66.5206 -54.485 84.874
1443 1 481 50.3748 13.8258 28.7552
1444 1 482 -1.89838 -21.9102 20.6399
1445 2 482 -63.7721 52.6587 8.22408
1446 1 482 73.9235 -46.6789 2.59089
1447 1 483 -60.8623 65.3723 8.60636
1448 2 483 10.0945 -72.2745 -86.6034
1449 1 483 -74.2381 -27.4458 13.5652
1450 1 484 28.542 49.5327 -83.7952
1451 2 484 83.7682 20.8372 -31.0386
1452 1 484 2.11264 42.2881 -36.9448
1453 1 485 -34.8232 -42.8312 9.06588
1454 2 485 -46.2396 2.55461 -32.0128
1455 1 485 10.8107 37.1233 84.3006
1456 1 486 72.3974 66.2279 -50.8983
1457 2 486 -45.7574 -20.477 -64.9601
1458 1 486 29.265 52.6935 44.5679
1459 1 487 -1.95054 -75.4659 -6.56649
1460 2 487 -16.8284 -44.8277 70.6291
1461 1 487 -68.3773 -50.7848 31.9598
1462 1 488 26.5337 -28.8954 -32.5192
1463 2 488 60.0792 -47.119 7.87778
1464 1 488 85.2306 -24.644 -87.8593
1465 1 489 -14.9365 38.4009 -9.3299
1466 2 489 63.7846 68.7315 60.827
1467 1 489 -50.4038 53.3504 75.3125
1468 1 490 64.9945 -35.3437 10.0236
1469 2 490 56.8836 63.1311 -19.3143
1470 1 490 77.2216 30.9258 39.499
1471 1 491 75.9799 46.9898 -32.0527
1472 2 491 -61.4426 -5.22942 -21.2206
1473 1 491 69.0244 -3.16572 15.6504
1474 1 492 50.9857 -40.726 15.0241
1475 2 492 21.436 51.0276 -70.9961
1476 1 492 -86.4981 -85.474 41.1271
1477 1 493 74.5933 -65.8011 -27.026
1478 2 493 77.9929 -4.01597 45.1117
1479 1 493 15.5192 51.7203 -44.7067
1480 1 494 38.7278 -78.1309 -20.4437
1481 2 494 53.4647 18.9257 -18.0131
1482 1 494 41.6048 -79.1253 89.0445
1483 1 495 -79.002 80.9055 79.8524
1484 2 495 35.5913 -63.2308 -18.961
1485 1 495 39.6261 -63.0628 -31.8933
1486 1 496 11.8451 -50.0778 -60.3377
1487 2 496 66.2596 -39.0909 26.5764
1488 1 496 34.6061 55.7097 -72.828
1489 1 497 -56.195 18.4833 -14.4661
1490 2 497 -10.7937 86.3399 -29.758
1491 1 497 -13.4839 -59.6913 14.0734
1492 1 498 -40.4475 -16.6553 35.6918
1493 2 498 -78.7616 -78.1689 -26.8846
1494 1 498 49.815 89.1233 40.8177
1495 1 499 14.0452 -28.5773 -79.0442
1496 2 499 68.7185 9.17756 -26.6603
1497 1 499 -33.1429 1.13048 4.5137
1498 1 500 24.6252 84.9408 -89.6536
1499 2 500 1.76744 67.6762 -16.2828
1500 1 500 -37.9021 -83.4863 40.063
