ITEM: TIMESTEP
1000
ITEM: NUMBER OF ENTRIES
0
ITEM: BOX BOUNDS pp pp pp
-1.0000000000000000e+01 1.0000000000000000e+01
-1.0000000000000000e+01 1.0000000000000000e+01
-1.0000000000000000e+01 1.0000000000000000e+01
ITEM: ENTRIES index c_bondstic
ITEM: TIMESTEP
2000
ITEM: NUMBER OF ENTRIES
0
ITEM: BOX BOUNDS pp pp pp
-1.0000000000000000e+01 1.0000000000000000e+01
-1.0000000000000000e+01 1.0000000000000000e+01
-1.0000000000000000e+01 1.0000000000000000e+01
ITEM: ENTRIES index c_bondstic
ITEM: TIMESTEP
3000
ITEM: NUMBER OF ENTRIES
0
ITEM: BOX BOUNDS pp pp pp
-1.0000000000000000e+01 1.0000000000000000e+01
-1.0000000000000000e+01 1.0000000000000000e+01
-1.0000000000000000e+01 1.0000000000000000e+01
ITEM: ENTRIES index c_bondstic
ITEM: TIMESTEP
4000
ITEM: NUMBER OF ENTRIES
0
ITEM: BOX BOUNDS pp pp pp
-1.0000000000000000e+01 1.0000000000000000e+01
-1.0000000000000000e+01 1.0000000000000000e+01
-1.0000000000000000e+01 1.0000000000000000e+01
ITEM: ENTRIES index c_bondstic
ITEM: TIMESTEP
5000
ITEM: NUMBER OF ENTRIES
0
ITEM: BOX BOUNDS pp pp pp
-1.0000000000000000e+01 1.0000000000000000e+01
-1.0000000000000000e+01 1.0000000000000000e+01
-1.0000000000000000e+01 1.0000000000000000e+01
ITEM: ENTRIES index c_bondstic
ITEM: TIMESTEP
6000
ITEM: NUMBER OF ENTRIES
0
ITEM: BOX BOUNDS pp pp pp
-1.0000000000000000e+01 1.0000000000000000e+01
-1.0000000000000000e+01 1.0000000000000000e+01
-1.0000000000000000e+01 1.0000000000000000e+01
ITEM: ENTRIES index c_bondstic
ITEM: TIMESTEP
7000
ITEM: NUMBER OF ENTRIES
0
ITEM: BOX BOUNDS pp pp pp
-1.0000000000000000e+01 1.0000000000000000e+01
-1.0000000000000000e+01 1.0000000000000000e+01
-1.0000000000000000e+01 1.0000000000000000e+01
ITEM: ENTRIES index c_bondstic
ITEM: TIMESTEP
8000
ITEM: NUMBER OF ENTRIES
0
ITEM: BOX BOUNDS pp pp pp
-1.0000000000000000e+01 1.0000000000000000e+01
-1.0000000000000000e+01 1.0000000000000000e+01
-1.0000000000000000e+01 1.0000000000000000e+01
ITEM: ENTRIES index c_bondstic
ITEM: TIMESTEP
9000
ITEM: NUMBER OF ENTRIES
0
ITEM: BOX BOUNDS pp pp pp
-1.0000000000000000e+01 1.0000000000000000e+01
-1.0000000000000000e+01 1.0000000000000000e+01
-1.0000000000000000e+01 1.0000000000000000e+01
ITEM: ENTRIES index c_bondstic
ITEM: TIMESTEP
10000
ITEM: NUMBER OF ENTRIES
0
ITEM: BOX BOUNDS pp pp pp
-1.0000000000000000e+01 1.0000000000000000e+01
-1.0000000000000000e+01 1.0000000000000000e+01
-1.0000000000000000e+01 1.0000000000000000e+01
ITEM: ENTRIES index c_bondstic
ITEM: TIMESTEP
11000
ITEM: NUMBER OF ENTRIES
0
ITEM: BOX BOUNDS pp pp pp
-1.0000000000000000e+01 1.0000000000000000e+01
-1.0000000000000000e+01 1.0000000000000000e+01
-1.0000000000000000e+01 1.0000000000000000e+01
ITEM: ENTRIES index c_bondstic
ITEM: TIMESTEP
12000
ITEM: NUMBER OF ENTRIES
0
ITEM: BOX BOUNDS pp pp pp
-1.0000000000000000e+01 1.0000000000000000e+01
-1.0000000000000000e+01 1.0000000000000000e+01
-1.0000000000000000e+01 1.0000000000000000e+01
ITEM: ENTRIES index c_bondstic
ITEM: TIMESTEP
13000
ITEM: NUMBER OF ENTRIES
0
ITEM: BOX BOUNDS pp pp pp
-1.0000000000000000e+01 1.0000000000000000e+01
-1.0000000000000000e+01 1.0000000000000000e+01
-1.0000000000000000e+01 1.0000000000000000e+01
ITEM: ENTRIES index c_bondstic
ITEM: TIMESTEP
14000
ITEM: NUMBER OF ENTRIES
0
ITEM: BOX BOUNDS pp pp pp
-1.0000000000000000e+01 1.0000000000000000e+01
-1.0000000000000000e+01 1.0000000000000000e+01
-1.0000000000000000e+01 1.0000000000000000e+01
ITEM: ENTRIES index c_bondstic
ITEM: TIMESTEP
15000
ITEM: NUMBER OF ENTRIES
0
ITEM: BOX BOUNDS pp pp pp
-1.0000000000000000e+01 1.0000000000000000e+01
-1.0000000000000000e+01 1.0000000000000000e+01
-1.0000000000000000e+01 1.0000000000000000e+01
ITEM: ENTRIES index c_bondstic
ITEM: TIMESTEP
16000
ITEM: NUMBER OF ENTRIES
0
ITEM: BOX BOUNDS pp pp pp
-1.0000000000000000e+01 1.0000000000000000e+01
-1.0000000000000000e+01 1.0000000000000000e+01
-1.0000000000000000e+01 1.0000000000000000e+01
ITEM: ENTRIES index c_bondstic
ITEM: TIMESTEP
17000
ITEM: NUMBER OF ENTRIES
0
ITEM: BOX BOUNDS pp pp pp
-1.0000000000000000e+01 1.0000000000000000e+01
-1.0000000000000000e+01 1.0000000000000000e+01
-1.0000000000000000e+01 1.0000000000000000e+01
ITEM: ENTRIES index c_bondstic
ITEM: TIMESTEP
18000
ITEM: NUMBER OF ENTRIES
0
ITEM: BOX BOUNDS pp pp pp
-1.0000000000000000e+01 1.0000000000000000e+01
-1.0000000000000000e+01 1.0000000000000000e+01
-1.0000000000000000e+01 1.0000000000000000e+01
ITEM: ENTRIES index c_bondstic
ITEM: TIMESTEP
19000
ITEM: NUMBER OF ENTRIES
0
ITEM: BOX BOUNDS pp pp pp
-1.0000000000000000e+01 1.0000000000000000e+01
-1.0000000000000000e+01 1.0000000000000000e+01
-1.0000000000000000e+01 1.0000000000000000e+01
ITEM: ENTRIES index c_bondstic
ITEM: TIMESTEP
20000
ITEM: NUMBER OF ENTRIES
0
ITEM: BOX BOUNDS pp pp pp
-1.0000000000000000e+01 1.0000000000000000e+01
-1.0000000000000000e+01 1.0000000000000000e+01
-1.0000000000000000e+01 1.0000000000000000e+01
ITEM: ENTRIES index c_bondstic
ITEM: TIMESTEP
21000
ITEM: NUMBER OF ENTRIES
0
ITEM: BOX BOUNDS pp pp pp
-1.0000000000000000e+01 1.0000000000000000e+01
-1.0000000000000000e+01 1.0000000000000000e+01
-1.0000000000000000e+01 1.0000000000000000e+01
ITEM: ENTRIES index c_bondstic
ITEM: TIMESTEP
22000
ITEM: NUMBER OF ENTRIES
0
ITEM: BOX BOUNDS pp pp pp
-1.0000000000000000e+01 1.0000000000000000e+01
-1.0000000000000000e+01 1.0000000000000000e+01
-1.0000000000000000e+01 1.0000000000000000e+01
ITEM: ENTRIES index c_bondstic
ITEM: TIMESTEP
23000
ITEM: NUMBER OF ENTRIES
0
ITEM: BOX BOUNDS pp pp pp
-1.0000000000000000e+01 1.0000000000000000e+01
-1.0000000000000000e+01 1.0000000000000000e+01
-1.0000000000000000e+01 1.0000000000000000e+01
ITEM: ENTRIES index c_bondstic
ITEM: TIMESTEP
24000
ITEM: NUMBER OF ENTRIES
0
ITEM: BOX BOUNDS pp pp pp
-1.0000000000000000e+01 1.0000000000000000e+01
-1.0000000000000000e+01 1.0000000000000000e+01
-1.0000000000000000e+01 1.0000000000000000e+01
ITEM: ENTRIES index c_bondstic
ITEM: TIMESTEP
25000
ITEM: NUMBER OF ENTRIES
0
ITEM: BOX BOUNDS pp pp pp
-1.0000000000000000e+01 1.0000000000000000e+01
-1.0000000000000000e+01 1.0000000000000000e+01
-1.0000000000000000e+01 1.0000000000000000e+01
ITEM: ENTRIES index c_bondstic
ITEM: TIMESTEP
26000
ITEM: NUMBER OF ENTRIES
0
ITEM: BOX BOUNDS pp pp pp
-1.0000000000000000e+01 1.0000000000000000e+01
-1.0000000000000000e+01 1.0000000000000000e+01
-1.0000000000000000e+01 1.0000000000000000e+01
ITEM: ENTRIES index c_bondstic
ITEM: TIMESTEP
27000
ITEM: NUMBER OF ENTRIES
0
ITEM: BOX BOUNDS pp pp pp
-1.0000000000000000e+01 1.0000000000000000e+01
-1.0000000000000000e+01 1.0000000000000000e+01
-1.0000000000000000e+01 1.0000000000000000e+01
ITEM: ENTRIES index c_bondstic
ITEM: TIMESTEP
28000
ITEM: NUMBER OF ENTRIES
0
ITEM: BOX BOUNDS pp pp pp
-1.0000000000000000e+01 1.0000000000000000e+01
-1.0000000000000000e+01 1.0000000000000000e+01
-1.0000000000000000e+01 1.0000000000000000e+01
ITEM: ENTRIES index c_bondstic
ITEM: TIMESTEP
29000
ITEM: NUMBER OF ENTRIES
0
ITEM: BOX BOUNDS pp pp pp
-1.0000000000000000e+01 1.0000000000000000e+01
-1.0000000000000000e+01 1.0000000000000000e+01
-1.0000000000000000e+01 1.0000000000000000e+01
ITEM: ENTRIES index c_bondstic
ITEM: TIMESTEP
30000
ITEM: NUMBER OF ENTRIES
0
ITEM: BOX BOUNDS pp pp pp
-1.0000000000000000e+01 1.0000000000000000e+01
-1.0000000000000000e+01 1.0000000000000000e+01
-1.0000000000000000e+01 1.0000000000000000e+01
ITEM: ENTRIES index c_bondstic
ITEM: TIMESTEP
31000
ITEM: NUMBER OF ENTRIES
0
ITEM: BOX BOUNDS pp pp pp
-1.0000000000000000e+01 1.0000000000000000e+01
-1.0000000000000000e+01 1.0000000000000000e+01
-1.0000000000000000e+01 1.0000000000000000e+01
ITEM: ENTRIES index c_bondstic
ITEM: TIMESTEP
32000
ITEM: NUMBER OF ENTRIES
0
ITEM: BOX BOUNDS pp pp pp
-1.0000000000000000e+01 1.0000000000000000e+01
-1.0000000000000000e+01 1.0000000000000000e+01
-1.0000000000000000e+01 1.0000000000000000e+01
ITEM: ENTRIES index c_bondstic
ITEM: TIMESTEP
33000
ITEM: NUMBER OF ENTRIES
0
ITEM: BOX BOUNDS pp pp pp
-1.0000000000000000e+01 1.0000000000000000e+01
-1.0000000000000000e+01 1.0000000000000000e+01
-1.0000000000000000e+01 1.0000000000000000e+01
ITEM: ENTRIES index c_bondstic
ITEM: TIMESTEP
34000
ITEM: NUMBER OF ENTRIES
0
ITEM: BOX BOUNDS pp pp pp
-1.0000000000000000e+01 1.0000000000000000e+01
-1.0000000000000000e+01 1.0000000000000000e+01
-1.0000000000000000e+01 1.0000000000000000e+01
ITEM: ENTRIES index c_bondstic
ITEM: TIMESTEP
35000
ITEM: NUMBER OF ENTRIES
0
ITEM: BOX BOUNDS pp pp pp
-1.0000000000000000e+01 1.0000000000000000e+01
-1.0000000000000000e+01 1.0000000000000000e+01
-1.0000000000000000e+01 1.0000000000000000e+01
ITEM: ENTRIES index c_bondstic
ITEM: TIMESTEP
36000
ITEM: NUMBER OF ENTRIES
0
ITEM: BOX BOUNDS pp pp pp
-1.0000000000000000e+01 1.0000000000000000e+01
-1.0000000000000000e+01 1.0000000000000000e+01
-1.0000000000000000e+01 1.0000000000000000e+01
ITEM: ENTRIES index c_bondstic
ITEM: TIMESTEP
37000
ITEM: NUMBER OF ENTRIES
0
ITEM: BOX BOUNDS pp pp pp
-1.0000000000000000e+01 1.0000000000000000e+01
-1.0000000000000000e+01 1.0000000000000000e+01
-1.0000000000000000e+01 1.0000000000000000e+01
ITEM: ENTRIES index c_bondstic
ITEM: TIMESTEP
38000
ITEM: NUMBER OF ENTRIES
0
ITEM: BOX BOUNDS pp pp pp
-1.0000000000000000e+01 1.0000000000000000e+01
-1.0000000000000000e+01 1.0000000000000000e+01
-1.0000000000000000e+01 1.0000000000000000e+01
ITEM: ENTRIES index c_bondstic
ITEM: TIMESTEP
39000
ITEM: NUMBER OF ENTRIES
0
ITEM: BOX BOUNDS pp pp pp
-1.0000000000000000e+01 1.0000000000000000e+01
-1.0000000000000000e+01 1.0000000000000000e+01
-1.0000000000000000e+01 1.0000000000000000e+01
ITEM: ENTRIES index c_bondstic
ITEM: TIMESTEP
40000
ITEM: NUMBER OF ENTRIES
0
ITEM: BOX BOUNDS pp pp pp
-1.0000000000000000e+01 1.0000000000000000e+01
-1.0000000000000000e+01 1.0000000000000000e+01
-1.0000000000000000e+01 1.0000000000000000e+01
ITEM: ENTRIES index c_bondstic
ITEM: TIMESTEP
41000
ITEM: NUMBER OF ENTRIES
0
ITEM: BOX BOUNDS pp pp pp
-1.0000000000000000e+01 1.0000000000000000e+01
-1.0000000000000000e+01 1.0000000000000000e+01
-1.0000000000000000e+01 1.0000000000000000e+01
ITEM: ENTRIES index c_bondstic
ITEM: TIMESTEP
42000
ITEM: NUMBER OF ENTRIES
0
ITEM: BOX BOUNDS pp pp pp
-1.0000000000000000e+01 1.0000000000000000e+01
-1.0000000000000000e+01 1.0000000000000000e+01
-1.0000000000000000e+01 1.0000000000000000e+01
ITEM: ENTRIES index c_bondstic
ITEM: TIMESTEP
43000
ITEM: NUMBER OF ENTRIES
0
ITEM: BOX BOUNDS pp pp pp
-1.0000000000000000e+01 1.0000000000000000e+01
-1.0000000000000000e+01 1.0000000000000000e+01
-1.0000000000000000e+01 1.0000000000000000e+01
ITEM: ENTRIES index c_bondstic
ITEM: TIMESTEP
44000
ITEM: NUMBER OF ENTRIES
0
ITEM: BOX BOUNDS pp pp pp
-1.0000000000000000e+01 1.0000000000000000e+01
-1.0000000000000000e+01 1.0000000000000000e+01
-1.0000000000000000e+01 1.0000000000000000e+01
ITEM: ENTRIES index c_bondstic
ITEM: TIMESTEP
45000
ITEM: NUMBER OF ENTRIES
0
ITEM: BOX BOUNDS pp pp pp
-1.0000000000000000e+01 1.0000000000000000e+01
-1.0000000000000000e+01 1.0000000000000000e+01
-1.0000000000000000e+01 1.0000000000000000e+01
ITEM: ENTRIES index c_bondstic
ITEM: TIMESTEP
46000
ITEM: NUMBER OF ENTRIES
0
ITEM: BOX BOUNDS pp pp pp
-1.0000000000000000e+01 1.0000000000000000e+01
-1.0000000000000000e+01 1.0000000000000000e+01
-1.0000000000000000e+01 1.0000000000000000e+01
ITEM: ENTRIES index c_bondstic
ITEM: TIMESTEP
47000
ITEM: NUMBER OF ENTRIES
0
ITEM: BOX BOUNDS pp pp pp
-1.0000000000000000e+01 1.0000000000000000e+01
-1.0000000000000000e+01 1.0000000000000000e+01
-1.0000000000000000e+01 1.0000000000000000e+01
ITEM: ENTRIES index c_bondstic
ITEM: TIMESTEP
48000
ITEM: NUMBER OF ENTRIES
0
ITEM: BOX BOUNDS pp pp pp
-1.0000000000000000e+01 1.0000000000000000e+01
-1.0000000000000000e+01 1.0000000000000000e+01
-1.0000000000000000e+01 1.0000000000000000e+01
ITEM: ENTRIES index c_bondstic
ITEM: TIMESTEP
49000
ITEM: NUMBER OF ENTRIES
0
ITEM: BOX BOUNDS pp pp pp
-1.0000000000000000e+01 1.0000000000000000e+01
-1.0000000000000000e+01 1.0000000000000000e+01
-1.0000000000000000e+01 1.0000000000000000e+01
ITEM: ENTRIES index c_bondstic
ITEM: TIMESTEP
50000
ITEM: NUMBER OF ENTRIES
0
ITEM: BOX BOUNDS pp pp pp
-1.0000000000000000e+01 1.0000000000000000e+01
-1.0000000000000000e+01 1.0000000000000000e+01
-1.0000000000000000e+01 1.0000000000000000e+01
ITEM: ENTRIES index c_bondstic
ITEM: TIMESTEP
51000
ITEM: NUMBER OF ENTRIES
0
ITEM: BOX BOUNDS pp pp pp
-1.0000000000000000e+01 1.0000000000000000e+01
-1.0000000000000000e+01 1.0000000000000000e+01
-1.0000000000000000e+01 1.0000000000000000e+01
ITEM: ENTRIES index c_bondstic
ITEM: TIMESTEP
52000
ITEM: NUMBER OF ENTRIES
0
ITEM: BOX BOUNDS pp pp pp
-1.0000000000000000e+01 1.0000000000000000e+01
-1.0000000000000000e+01 1.0000000000000000e+01
-1.0000000000000000e+01 1.0000000000000000e+01
ITEM: ENTRIES index c_bondstic
ITEM: TIMESTEP
53000
ITEM: NUMBER OF ENTRIES
0
ITEM: BOX BOUNDS pp pp pp
-1.0000000000000000e+01 1.0000000000000000e+01
-1.0000000000000000e+01 1.0000000000000000e+01
-1.0000000000000000e+01 1.0000000000000000e+01
ITEM: ENTRIES index c_bondstic
ITEM: TIMESTEP
54000
ITEM: NUMBER OF ENTRIES
0
ITEM: BOX BOUNDS pp pp pp
-1.0000000000000000e+01 1.0000000000000000e+01
-1.0000000000000000e+01 1.0000000000000000e+01
-1.0000000000000000e+01 1.0000000000000000e+01
ITEM: ENTRIES index c_bondstic
ITEM: TIMESTEP
55000
ITEM: NUMBER OF ENTRIES
0
ITEM: BOX BOUNDS pp pp pp
-1.0000000000000000e+01 1.0000000000000000e+01
-1.0000000000000000e+01 1.0000000000000000e+01
-1.0000000000000000e+01 1.0000000000000000e+01
ITEM: ENTRIES index c_bondstic
ITEM: TIMESTEP
56000
ITEM: NUMBER OF ENTRIES
0
ITEM: BOX BOUNDS pp pp pp
-1.0000000000000000e+01 1.0000000000000000e+01
-1.0000000000000000e+01 1.0000000000000000e+01
-1.0000000000000000e+01 1.0000000000000000e+01
ITEM: ENTRIES index c_bondstic
ITEM: TIMESTEP
57000
ITEM: NUMBER OF ENTRIES
0
ITEM: BOX BOUNDS pp pp pp
-1.0000000000000000e+01 1.0000000000000000e+01
-1.0000000000000000e+01 1.0000000000000000e+01
-1.0000000000000000e+01 1.0000000000000000e+01
ITEM: ENTRIES index c_bondstic
ITEM: TIMESTEP
58000
ITEM: NUMBER OF ENTRIES
0
ITEM: BOX BOUNDS pp pp pp
-1.0000000000000000e+01 1.0000000000000000e+01
-1.0000000000000000e+01 1.0000000000000000e+01
-1.0000000000000000e+01 1.0000000000000000e+01
ITEM: ENTRIES index c_bondstic
ITEM: TIMESTEP
59000
ITEM: NUMBER OF ENTRIES
0
ITEM: BOX BOUNDS pp pp pp
-1.0000000000000000e+01 1.0000000000000000e+01
-1.0000000000000000e+01 1.0000000000000000e+01
-1.0000000000000000e+01 1.0000000000000000e+01
ITEM: ENTRIES index c_bondstic
ITEM: TIMESTEP
60000
ITEM: NUMBER OF ENTRIES
0
ITEM: BOX BOUNDS pp pp pp
-1.0000000000000000e+01 1.0000000000000000e+01
-1.0000000000000000e+01 1.0000000000000000e+01
-1.0000000000000000e+01 1.0000000000000000e+01
ITEM: ENTRIES index c_bondstic
ITEM: TIMESTEP
61000
ITEM: NUMBER OF ENTRIES
0
ITEM: BOX BOUNDS pp pp pp
-1.0000000000000000e+01 1.0000000000000000e+01
-1.0000000000000000e+01 1.0000000000000000e+01
-1.0000000000000000e+01 1.0000000000000000e+01
ITEM: ENTRIES index c_bondstic
ITEM: TIMESTEP
62000
ITEM: NUMBER OF ENTRIES
0
ITEM: BOX BOUNDS pp pp pp
-1.0000000000000000e+01 1.0000000000000000e+01
-1.0000000000000000e+01 1.0000000000000000e+01
-1.0000000000000000e+01 1.0000000000000000e+01
ITEM: ENTRIES index c_bondstic
ITEM: TIMESTEP
63000
ITEM: NUMBER OF ENTRIES
0
ITEM: BOX BOUNDS pp pp pp
-1.0000000000000000e+01 1.0000000000000000e+01
-1.0000000000000000e+01 1.0000000000000000e+01
-1.0000000000000000e+01 1.0000000000000000e+01
ITEM: ENTRIES index c_bondstic
ITEM: TIMESTEP
64000
ITEM: NUMBER OF ENTRIES
0
ITEM: BOX BOUNDS pp pp pp
-1.0000000000000000e+01 1.0000000000000000e+01
-1.0000000000000000e+01 1.0000000000000000e+01
-1.0000000000000000e+01 1.0000000000000000e+01
ITEM: ENTRIES index c_bondstic
ITEM: TIMESTEP
65000
ITEM: NUMBER OF ENTRIES
0
ITEM: BOX BOUNDS pp pp pp
-1.0000000000000000e+01 1.0000000000000000e+01
-1.0000000000000000e+01 1.0000000000000000e+01
-1.0000000000000000e+01 1.0000000000000000e+01
ITEM: ENTRIES index c_bondstic
ITEM: TIMESTEP
66000
ITEM: NUMBER OF ENTRIES
0
ITEM: BOX BOUNDS pp pp pp
-1.0000000000000000e+01 1.0000000000000000e+01
-1.0000000000000000e+01 1.0000000000000000e+01
-1.0000000000000000e+01 1.0000000000000000e+01
ITEM: ENTRIES index c_bondstic
ITEM: TIMESTEP
67000
ITEM: NUMBER OF ENTRIES
0
ITEM: BOX BOUNDS pp pp pp
-1.0000000000000000e+01 1.0000000000000000e+01
-1.0000000000000000e+01 1.0000000000000000e+01
-1.0000000000000000e+01 1.0000000000000000e+01
ITEM: ENTRIES index c_bondstic
ITEM: TIMESTEP
68000
ITEM: NUMBER OF ENTRIES
0
ITEM: BOX BOUNDS pp pp pp
-1.0000000000000000e+01 1.0000000000000000e+01
-1.0000000000000000e+01 1.0000000000000000e+01
-1.0000000000000000e+01 1.0000000000000000e+01
ITEM: ENTRIES index c_bondstic
ITEM: TIMESTEP
69000
ITEM: NUMBER OF ENTRIES
0
ITEM: BOX BOUNDS pp pp pp
-1.0000000000000000e+01 1.0000000000000000e+01
-1.0000000000000000e+01 1.0000000000000000e+01
-1.0000000000000000e+01 1.0000000000000000e+01
ITEM: ENTRIES index c_bondstic
ITEM: TIMESTEP
70000
ITEM: NUMBER OF ENTRIES
0
ITEM: BOX BOUNDS pp pp pp
-1.0000000000000000e+01 1.0000000000000000e+01
-1.0000000000000000e+01 1.0000000000000000e+01
-1.0000000000000000e+01 1.0000000000000000e+01
ITEM: ENTRIES index c_bondstic
ITEM: TIMESTEP
71000
ITEM: NUMBER OF ENTRIES
0
ITEM: BOX BOUNDS pp pp pp
-1.0000000000000000e+01 1.0000000000000000e+01
-1.0000000000000000e+01 1.0000000000000000e+01
-1.0000000000000000e+01 1.0000000000000000e+01
ITEM: ENTRIES index c_bondstic
ITEM: TIMESTEP
72000
ITEM: NUMBER OF ENTRIES
0
ITEM: BOX BOUNDS pp pp pp
-1.0000000000000000e+01 1.0000000000000000e+01
-1.0000000000000000e+01 1.0000000000000000e+01
-1.0000000000000000e+01 1.0000000000000000e+01
ITEM: ENTRIES index c_bondstic
ITEM: TIMESTEP
73000
ITEM: NUMBER OF ENTRIES
0
ITEM: BOX BOUNDS pp pp pp
-1.0000000000000000e+01 1.0000000000000000e+01
-1.0000000000000000e+01 1.0000000000000000e+01
-1.0000000000000000e+01 1.0000000000000000e+01
ITEM: ENTRIES index c_bondstic
ITEM: TIMESTEP
74000
ITEM: NUMBER OF ENTRIES
0
ITEM: BOX BOUNDS pp pp pp
-1.0000000000000000e+01 1.0000000000000000e+01
-1.0000000000000000e+01 1.0000000000000000e+01
-1.0000000000000000e+01 1.0000000000000000e+01
ITEM: ENTRIES index c_bondstic
ITEM: TIMESTEP
75000
ITEM: NUMBER OF ENTRIES
0
ITEM: BOX BOUNDS pp pp pp
-1.0000000000000000e+01 1.0000000000000000e+01
-1.0000000000000000e+01 1.0000000000000000e+01
-1.0000000000000000e+01 1.0000000000000000e+01
ITEM: ENTRIES index c_bondstic
ITEM: TIMESTEP
76000
ITEM: NUMBER OF ENTRIES
0
ITEM: BOX BOUNDS pp pp pp
-1.0000000000000000e+01 1.0000000000000000e+01
-1.0000000000000000e+01 1.0000000000000000e+01
-1.0000000000000000e+01 1.0000000000000000e+01
ITEM: ENTRIES index c_bondstic
ITEM: TIMESTEP
77000
ITEM: NUMBER OF ENTRIES
0
ITEM: BOX BOUNDS pp pp pp
-1.0000000000000000e+01 1.0000000000000000e+01
-1.0000000000000000e+01 1.0000000000000000e+01
-1.0000000000000000e+01 1.0000000000000000e+01
ITEM: ENTRIES index c_bondstic
ITEM: TIMESTEP
78000
ITEM: NUMBER OF ENTRIES
0
ITEM: BOX BOUNDS pp pp pp
-1.0000000000000000e+01 1.0000000000000000e+01
-1.0000000000000000e+01 1.0000000000000000e+01
-1.0000000000000000e+01 1.0000000000000000e+01
ITEM: ENTRIES index c_bondstic
ITEM: TIMESTEP
79000
ITEM: NUMBER OF ENTRIES
0
ITEM: BOX BOUNDS pp pp pp
-1.0000000000000000e+01 1.0000000000000000e+01
-1.0000000000000000e+01 1.0000000000000000e+01
-1.0000000000000000e+01 1.0000000000000000e+01
ITEM: ENTRIES index c_bondstic
ITEM: TIMESTEP
80000
ITEM: NUMBER OF ENTRIES
0
ITEM: BOX BOUNDS pp pp pp
-1.0000000000000000e+01 1.0000000000000000e+01
-1.0000000000000000e+01 1.0000000000000000e+01
-1.0000000000000000e+01 1.0000000000000000e+01
ITEM: ENTRIES index c_bondstic
ITEM: TIMESTEP
81000
ITEM: NUMBER OF ENTRIES
0
ITEM: BOX BOUNDS pp pp pp
-1.0000000000000000e+01 1.0000000000000000e+01
-1.0000000000000000e+01 1.0000000000000000e+01
-1.0000000000000000e+01 1.0000000000000000e+01
ITEM: ENTRIES index c_bondstic
ITEM: TIMESTEP
82000
ITEM: NUMBER OF ENTRIES
0
ITEM: BOX BOUNDS pp pp pp
-1.0000000000000000e+01 1.0000000000000000e+01
-1.0000000000000000e+01 1.0000000000000000e+01
-1.0000000000000000e+01 1.0000000000000000e+01
ITEM: ENTRIES index c_bondstic
ITEM: TIMESTEP
83000
ITEM: NUMBER OF ENTRIES
0
ITEM: BOX BOUNDS pp pp pp
-1.0000000000000000e+01 1.0000000000000000e+01
-1.0000000000000000e+01 1.0000000000000000e+01
-1.0000000000000000e+01 1.0000000000000000e+01
ITEM: ENTRIES index c_bondstic
ITEM: TIMESTEP
84000
ITEM: NUMBER OF ENTRIES
0
ITEM: BOX BOUNDS pp pp pp
-1.0000000000000000e+01 1.0000000000000000e+01
-1.0000000000000000e+01 1.0000000000000000e+01
-1.0000000000000000e+01 1.0000000000000000e+01
ITEM: ENTRIES index c_bondstic
ITEM: TIMESTEP
85000
ITEM: NUMBER OF ENTRIES
0
ITEM: BOX BOUNDS pp pp pp
-1.0000000000000000e+01 1.0000000000000000e+01
-1.0000000000000000e+01 1.0000000000000000e+01
-1.0000000000000000e+01 1.0000000000000000e+01
ITEM: ENTRIES index c_bondstic
ITEM: TIMESTEP
86000
ITEM: NUMBER OF ENTRIES
0
ITEM: BOX BOUNDS pp pp pp
-1.0000000000000000e+01 1.0000000000000000e+01
-1.0000000000000000e+01 1.0000000000000000e+01
-1.0000000000000000e+01 1.0000000000000000e+01
ITEM: ENTRIES index c_bondstic
ITEM: TIMESTEP
87000
ITEM: NUMBER OF ENTRIES
0
ITEM: BOX BOUNDS pp pp pp
-1.0000000000000000e+01 1.0000000000000000e+01
-1.0000000000000000e+01 1.0000000000000000e+01
-1.0000000000000000e+01 1.0000000000000000e+01
ITEM: ENTRIES index c_bondstic
ITEM: TIMESTEP
88000
ITEM: NUMBER OF ENTRIES
0
ITEM: BOX BOUNDS pp pp pp
-1.0000000000000000e+01 1.0000000000000000e+01
-1.0000000000000000e+01 1.0000000000000000e+01
-1.0000000000000000e+01 1.0000000000000000e+01
ITEM: ENTRIES index c_bondstic
ITEM: TIMESTEP
89000
ITEM: NUMBER OF ENTRIES
0
ITEM: BOX BOUNDS pp pp pp
-1.0000000000000000e+01 1.0000000000000000e+01
-1.0000000000000000e+01 1.0000000000000000e+01
-1.0000000000000000e+01 1.0000000000000000e+01
ITEM: ENTRIES index c_bondstic
ITEM: TIMESTEP
90000
ITEM: NUMBER OF ENTRIES
0
ITEM: BOX BOUNDS pp pp pp
-1.0000000000000000e+01 1.0000000000000000e+01
-1.0000000000000000e+01 1.0000000000000000e+01
-1.0000000000000000e+01 1.0000000000000000e+01
ITEM: ENTRIES index c_bondstic
ITEM: TIMESTEP
91000
ITEM: NUMBER OF ENTRIES
0
ITEM: BOX BOUNDS pp pp pp
-1.0000000000000000e+01 1.0000000000000000e+01
-1.0000000000000000e+01 1.0000000000000000e+01
-1.0000000000000000e+01 1.0000000000000000e+01
ITEM: ENTRIES index c_bondstic
ITEM: TIMESTEP
92000
ITEM: NUMBER OF ENTRIES
0
ITEM: BOX BOUNDS pp pp pp
-1.0000000000000000e+01 1.0000000000000000e+01
-1.0000000000000000e+01 1.0000000000000000e+01
-1.0000000000000000e+01 1.0000000000000000e+01
ITEM: ENTRIES index c_bondstic
ITEM: TIMESTEP
93000
ITEM: NUMBER OF ENTRIES
0
ITEM: BOX BOUNDS pp pp pp
-1.0000000000000000e+01 1.0000000000000000e+01
-1.0000000000000000e+01 1.0000000000000000e+01
-1.0000000000000000e+01 1.0000000000000000e+01
ITEM: ENTRIES index c_bondstic
ITEM: TIMESTEP
94000
ITEM: NUMBER OF ENTRIES
0
ITEM: BOX BOUNDS pp pp pp
-1.0000000000000000e+01 1.0000000000000000e+01
-1.0000000000000000e+01 1.0000000000000000e+01
-1.0000000000000000e+01 1.0000000000000000e+01
ITEM: ENTRIES index c_bondstic
ITEM: TIMESTEP
95000
ITEM: NUMBER OF ENTRIES
0
ITEM: BOX BOUNDS pp pp pp
-1.0000000000000000e+01 1.0000000000000000e+01
-1.0000000000000000e+01 1.0000000000000000e+01
-1.0000000000000000e+01 1.0000000000000000e+01
ITEM: ENTRIES index c_bondstic
ITEM: TIMESTEP
96000
ITEM: NUMBER OF ENTRIES
0
ITEM: BOX BOUNDS pp pp pp
-1.0000000000000000e+01 1.0000000000000000e+01
-1.0000000000000000e+01 1.0000000000000000e+01
-1.0000000000000000e+01 1.0000000000000000e+01
ITEM: ENTRIES index c_bondstic
ITEM: TIMESTEP
97000
ITEM: NUMBER OF ENTRIES
0
ITEM: BOX BOUNDS pp pp pp
-1.0000000000000000e+01 1.0000000000000000e+01
-1.0000000000000000e+01 1.0000000000000000e+01
-1.0000000000000000e+01 1.0000000000000000e+01
ITEM: ENTRIES index c_bondstic
ITEM: TIMESTEP
98000
ITEM: NUMBER OF ENTRIES
0
ITEM: BOX BOUNDS pp pp pp
-1.0000000000000000e+01 1.0000000000000000e+01
-1.0000000000000000e+01 1.0000000000000000e+01
-1.0000000000000000e+01 1.0000000000000000e+01
ITEM: ENTRIES index c_bondstic
ITEM: TIMESTEP
99000
ITEM: NUMBER OF ENTRIES
0
ITEM: BOX BOUNDS pp pp pp
-1.0000000000000000e+01 1.0000000000000000e+01
-1.0000000000000000e+01 1.0000000000000000e+01
-1.0000000000000000e+01 1.0000000000000000e+01
ITEM: ENTRIES index c_bondstic
ITEM: TIMESTEP
100000
ITEM: NUMBER OF ENTRIES
0
ITEM: BOX BOUNDS pp pp pp
-1.0000000000000000e+01 1.0000000000000000e+01
-1.0000000000000000e+01 1.0000000000000000e+01
-1.0000000000000000e+01 1.0000000000000000e+01
ITEM: ENTRIES index c_bondstic
