LAMMPS (22 Jul 2025)
OMP_NUM_THREADS environment is not set. Defaulting to 1 thread.
  using 1 OpenMP thread(s) per MPI task
# simulation of three bead model with network percolation and
# conformational change.


##########################################

# user input
variable Nsteps         equal 100000
variable Nwrite         equal   1000
variable equilTime      equal  20000
variable seed           equal 349503
variable tstep          equal  0.001
variable stretch_force  equal     10

##########################################

# configuration
units lj
boundary p p p
atom_style bond         # bead-spring polymer
read_data network.in extra/bond/per/atom 2 extra/special/per/atom 3
Reading data file ...
  orthogonal box = (-30 -30 -30) to (30 30 30)
  1 by 1 by 1 MPI processor grid
  reading atoms ...
  3000 atoms
  scanning bonds ...
  4 = max bonds/atom
  orthogonal box = (-30 -30 -30) to (30 30 30)
  1 by 1 by 1 MPI processor grid
  reading bonds ...
  3000 bonds
Finding 1-2 1-3 1-4 neighbors ...
  special bond factors lj:    0        0        0       
  special bond factors coul:  0        0        0       
     2 = max # of 1-2 neighbors
     2 = max # of 1-3 neighbors
     4 = max # of 1-4 neighbors
     5 = max # of special neighbors
  special bonds CPU = 0.001 seconds
  read_data CPU = 0.053 seconds

labelmap atom 1 stic 2 hinge

group stickers         type 1
2000 atoms in group stickers
group hinges           type 2
1000 atoms in group hinges

# three bead unfolding template loading
molecule folded intramoltemplate/folded_three_bead.data
Read molecule template folded:
folded three bead
  1 molecules
  1 fragments
  0 bodies
  3 atoms with max type 2
  3 bonds with max type 2
  0 angles with max type 0
  0 dihedrals with max type 0
  0 impropers with max type 0
molecule unfolded intramoltemplate/unfolded_three_bead.data
Read molecule template unfolded:
unfolded three bead
  1 molecules
  0 fragments
  0 bodies
  3 atoms with max type 2
  2 bonds with max type 1
  0 angles with max type 0
  0 dihedrals with max type 0
  0 impropers with max type 0

# intermolecular template loading

# loading sticker-sticker intermolecular templates
molecule pre_ssfu intermoltemplate/pre_sticstic_fu_inter.data
Read molecule template pre_ssfu:
two three beads, one folded and unfolded, pre sticker-sticker intermolecular particlesBonding
  1 molecules
  0 fragments
  0 bodies
  6 atoms with max type 2
  5 bonds with max type 2
  0 angles with max type 0
  0 dihedrals with max type 0
  0 impropers with max type 0
molecule post_ssfu intermoltemplate/post_sticstic_fu_inter.data
Read molecule template post_ssfu:
two three beads, one folded and unfolded, post sticker-sticker intermolecular particlesBonding
  1 molecules
  0 fragments
  0 bodies
  6 atoms with max type 2
  6 bonds with max type 3
  0 angles with max type 0
  0 dihedrals with max type 0
  0 impropers with max type 0
molecule pre_ssff intermoltemplate/post_sticstic_ff_inter.data
Read molecule template pre_ssff:
two three beads, both folded, post sticker-sticker intermolecular particlesBonding
  1 molecules
  0 fragments
  0 bodies
  6 atoms with max type 2
  7 bonds with max type 3
  0 angles with max type 0
  0 dihedrals with max type 0
  0 impropers with max type 0
molecule post_ssff intermoltemplate/post_sticstic_ff_inter.data
Read molecule template post_ssff:
two three beads, both folded, post sticker-sticker intermolecular particlesBonding
  1 molecules
  0 fragments
  0 bodies
  6 atoms with max type 2
  7 bonds with max type 3
  0 angles with max type 0
  0 dihedrals with max type 0
  0 impropers with max type 0
molecule pre_ssuu intermoltemplate/pre_sticstic_uu_inter.data
Read molecule template pre_ssuu:
two three beads, both unfolded, pre sticker-sticker intermolecular particlesBonding
  1 molecules
  0 fragments
  0 bodies
  6 atoms with max type 2
  4 bonds with max type 1
  0 angles with max type 0
  0 dihedrals with max type 0
  0 impropers with max type 0
molecule post_ssuu intermoltemplate/post_sticstic_uu_inter.data
Read molecule template post_ssuu:
two three beads, both unfolded, post sticker-sticker intermolecular particlesBonding
  1 molecules
  0 fragments
  0 bodies
  6 atoms with max type 2
  5 bonds with max type 3
  0 angles with max type 0
  0 dihedrals with max type 0
  0 impropers with max type 0

# loading hinge-hinge intermolecular templates
molecule pre_hhfu intermoltemplate/pre_hingehinge_fu_inter.data
Read molecule template pre_hhfu:
two three beads, one folded and unfolded, pre hinge-hinge intermolecular particlesBonding
  1 molecules
  0 fragments
  0 bodies
  6 atoms with max type 2
  5 bonds with max type 2
  0 angles with max type 0
  0 dihedrals with max type 0
  0 impropers with max type 0
molecule post_hhfu intermoltemplate/post_hingehinge_fu_inter.data
Read molecule template post_hhfu:
two three beads, one folded and unfolded, post hinge-hinge intermolecular particlesBonding
  1 molecules
  0 fragments
  0 bodies
  6 atoms with max type 2
  6 bonds with max type 5
  0 angles with max type 0
  0 dihedrals with max type 0
  0 impropers with max type 0
molecule pre_hhff intermoltemplate/pre_hingehinge_ff_inter.data
Read molecule template pre_hhff:
two three beads, both folded, pre hinge-hinge intermolecular particlesBonding
  1 molecules
  0 fragments
  0 bodies
  6 atoms with max type 2
  6 bonds with max type 2
  0 angles with max type 0
  0 dihedrals with max type 0
  0 impropers with max type 0
molecule post_hhff intermoltemplate/post_hingehinge_ff_inter.data
Read molecule template post_hhff:
two three beads, both folded, post hinge-hinge intermolecular particlesBonding
  1 molecules
  0 fragments
  0 bodies
  6 atoms with max type 2
  7 bonds with max type 5
  0 angles with max type 0
  0 dihedrals with max type 0
  0 impropers with max type 0
molecule pre_hhuu intermoltemplate/pre_hingehinge_uu_inter.data
Read molecule template pre_hhuu:
two three beads, both unfolded, pre hinge-hinge intermolecular particlesBonding
  1 molecules
  0 fragments
  0 bodies
  6 atoms with max type 2
  4 bonds with max type 1
  0 angles with max type 0
  0 dihedrals with max type 0
  0 impropers with max type 0
molecule post_hhuu intermoltemplate/post_hingehinge_uu_inter.data
Read molecule template post_hhuu:
two three beads, both unfolded, post hinge-hinge intermolecular particlesBonding
  1 molecules
  0 fragments
  0 bodies
  6 atoms with max type 2
  5 bonds with max type 5
  0 angles with max type 0
  0 dihedrals with max type 0
  0 impropers with max type 0

# loading sticker-hinge intermolecular templates. one is for outer sticker, one is for inner sticker
molecule pre_ishfu intermoltemplate/pre_instic_hinge_fu_inter.data
Read molecule template pre_ishfu:
two three beads, one folded and unfolded, pre hinge-(inner)sticker intermolecular particlesBonding
  1 molecules
  0 fragments
  0 bodies
  6 atoms with max type 2
  5 bonds with max type 2
  0 angles with max type 0
  0 dihedrals with max type 0
  0 impropers with max type 0
molecule post_ishfu intermoltemplate/post_instic_hinge_fu_inter.data
Read molecule template post_ishfu:
two three beads, one folded and unfolded, post hinge-(inner)sticker intermolecular particlesBonding
  1 molecules
  0 fragments
  0 bodies
  6 atoms with max type 2
  6 bonds with max type 4
  0 angles with max type 0
  0 dihedrals with max type 0
  0 impropers with max type 0
molecule pre_ishff intermoltemplate/pre_instic_hinge_ff_inter.data
Read molecule template pre_ishff:
two three beads, both folded, pre hinge-(inner)sticker intermolecular particlesBonding
  1 molecules
  0 fragments
  0 bodies
  6 atoms with max type 2
  6 bonds with max type 2
  0 angles with max type 0
  0 dihedrals with max type 0
  0 impropers with max type 0
molecule post_ishff intermoltemplate/post_instic_hinge_ff_inter.data
Read molecule template post_ishff:
two three beads, both folded, post hinge-(inner)sticker intermolecular particlesBonding
  1 molecules
  0 fragments
  0 bodies
  6 atoms with max type 2
  7 bonds with max type 4
  0 angles with max type 0
  0 dihedrals with max type 0
  0 impropers with max type 0
molecule pre_ishuu intermoltemplate/pre_instic_hinge_uu_inter.data
Read molecule template pre_ishuu:
two three beads, both unfolded, pre hinge-(inner)sticker intermolecular particlesBonding
  1 molecules
  0 fragments
  0 bodies
  6 atoms with max type 2
  4 bonds with max type 1
  0 angles with max type 0
  0 dihedrals with max type 0
  0 impropers with max type 0
molecule post_ishuu intermoltemplate/pre_instic_hinge_uu_inter.data
Read molecule template post_ishuu:
two three beads, both unfolded, pre hinge-(inner)sticker intermolecular particlesBonding
  1 molecules
  0 fragments
  0 bodies
  6 atoms with max type 2
  4 bonds with max type 1
  0 angles with max type 0
  0 dihedrals with max type 0
  0 impropers with max type 0

molecule pre_oshfu intermoltemplate/pre_outstic_hinge_fu_inter.data
Read molecule template pre_oshfu:
two three beads, one folded and unfolded, pre hinge-(outer)sticker intermolecular particlesBonding
  1 molecules
  0 fragments
  0 bodies
  6 atoms with max type 2
  5 bonds with max type 2
  0 angles with max type 0
  0 dihedrals with max type 0
  0 impropers with max type 0
molecule post_oshfu intermoltemplate/post_outstic_hinge_fu_inter.data
Read molecule template post_oshfu:
two three beads, one folded and unfolded, post hinge-(outer)sticker intermolecular particlesBonding
  1 molecules
  0 fragments
  0 bodies
  6 atoms with max type 2
  6 bonds with max type 4
  0 angles with max type 0
  0 dihedrals with max type 0
  0 impropers with max type 0
molecule pre_oshff intermoltemplate/pre_outstic_hinge_ff_inter.data
Read molecule template pre_oshff:
two three beads, both folded, pre hinge-(outer)sticker intermolecular particlesBonding
  1 molecules
  0 fragments
  0 bodies
  6 atoms with max type 2
  6 bonds with max type 2
  0 angles with max type 0
  0 dihedrals with max type 0
  0 impropers with max type 0
molecule post_oshff intermoltemplate/post_outstic_hinge_ff_inter.data
Read molecule template post_oshff:
two three beads, both folded, post hinge-(inner)sticker intermolecular particlesBonding
  1 molecules
  0 fragments
  0 bodies
  6 atoms with max type 2
  7 bonds with max type 4
  0 angles with max type 0
  0 dihedrals with max type 0
  0 impropers with max type 0
molecule pre_oshuu intermoltemplate/pre_outstic_hinge_uu_inter.data
Read molecule template pre_oshuu:
two three beads, both unfolded, pre hinge-(outer)sticker intermolecular particlesBonding
  1 molecules
  0 fragments
  0 bodies
  6 atoms with max type 2
  4 bonds with max type 1
  0 angles with max type 0
  0 dihedrals with max type 0
  0 impropers with max type 0
molecule post_oshuu intermoltemplate/pre_outstic_hinge_uu_inter.data
Read molecule template post_oshuu:
two three beads, both unfolded, pre hinge-(outer)sticker intermolecular particlesBonding
  1 molecules
  0 fragments
  0 bodies
  6 atoms with max type 2
  4 bonds with max type 1
  0 angles with max type 0
  0 dihedrals with max type 0
  0 impropers with max type 0

##########################################
# bond potentials

bond_style harmonic
bond_coeff 1 3 2        # sticker-hinge   (intra)
bond_coeff 2 3 2        # sticker-sticker (intra)
bond_coeff 3 3 2        # sticker-sticker (inter)
bond_coeff 4 3 2        # sticker-hinge   (inter)
bond_coeff 5 3 2        # hinge-hinge     (inter)


##########################################

# add brownian dynamics

fix 1 all nve                             # NVE integrator
fix 2 all langevin   1 1 2.0 ${seed}  # langevin thermostat
fix 2 all langevin   1 1 2.0 349503  

##########################################

# count bonds per atom

compute shintra all nbond/atom bond/type 1
compute ssintra all nbond/atom bond/type 2
compute ssinter all nbond/atom bond/type 3
compute shinter all nbond/atom bond/type 4
compute hhinter all nbond/atom bond/type 5

#dump ssintrafile all custom 1000 output/ssintra.dump id type mol c_ssintra
#dump_modify ssintrafile sort id
#fix ssintrafile all print 1000 "${t} ${ssperatom}" file output/ssintra.dat screen no

##########################################

# thermodynamic info

variable t equal step*${tstep}
variable t equal step*0.001

#thermo_style custom step temp
thermo ${Nwrite}   # print thermodynamic info every Nwrite steps
thermo 1000   

#dump 1 all atom ${Nwrite} output/dump.lammpstrj
#dump_modify 1 sort id
dump 2 all custom ${Nwrite} ../output/dump.lammpstrj id x y z type mol c_ssintra
dump 2 all custom 1000 ../output/dump.lammpstrj id x y z type mol c_ssintra
dump_modify 2 sort id

##########################################

# equilibration

pair_style soft 2.5
pair_coeff * * 10

velocity all create 1 203933 rot yes dist gaussian
run ${equilTime}
run 20000

CITE-CITE-CITE-CITE-CITE-CITE-CITE-CITE-CITE-CITE-CITE-CITE-CITE

Your simulation uses code contributions which should be cited:

- Type Label Framework: https://doi.org/10.1021/acs.jpcb.3c08419

@Article{Gissinger24,
 author = {Jacob R. Gissinger, Ilia Nikiforov, Yaser Afshar, Brendon Waters, Moon-ki Choi, Daniel S. Karls, Alexander Stukowski, Wonpil Im, Hendrik Heinz, Axel Kohlmeyer, and Ellad B. Tadmor},
 title = {Type Label Framework for Bonded Force Fields in LAMMPS},
 journal = {J. Phys. Chem. B},
 year =    2024,
 volume =  128,
 number =  13,
 pages =   {3282--3297}
}

CITE-CITE-CITE-CITE-CITE-CITE-CITE-CITE-CITE-CITE-CITE-CITE-CITE

Generated 0 of 1 mixed pair_coeff terms from geometric mixing rule
WARNING: Communication cutoff 2.8 is shorter than a bond length based estimate of 3.3. This may lead to errors. (src/comm.cpp:743)
Neighbor list info ...
  update: every = 1 steps, delay = 0 steps, check = yes
  max neighbors/atom: 2000, page size: 100000
  master list distance cutoff = 2.8
  ghost atom cutoff = 2.8
  binsize = 1.4, bins = 43 43 43
  1 neighbor lists, perpetual/occasional/extra = 1 0 0
  (1) pair soft, perpetual
      attributes: half, newton on
      pair build: half/bin/newton
      stencil: half/bin/3d
      bin: standard
WARNING: Communication cutoff 2.8 is shorter than a bond length based estimate of 3.3. This may lead to errors. (src/comm.cpp:743)
WARNING: Inconsistent image flags
For more information see https://docs.lammps.org/err0027 (src/domain.cpp:1052)
WARNING: Bond/angle/dihedral extent > half of periodic box length (src/domain.cpp:1174)
Per MPI rank memory allocation (min/avg/max) = 5.187 | 5.187 | 5.187 Mbytes
   Step          Temp          E_pair         E_mol          TotEng         Press     
         0   1              2.2443302      2650.3925      2654.1363     -25.756285    
      1000   94.548591      1.97565        49.907398      193.65866      0.71533936   
      2000   15.587339      0.31645379     17.189917      40.879586      0.022432386  
      3000   3.3044047      0.05850979     4.0936207      9.1070853     -0.00070870116
      4000   1.4263831      0.033359446    1.9479504      4.1201714     -0.0018413834 
      5000   1.028086       0.025086154    1.4981405      3.0648417     -0.0027627275 
      6000   1.4010069      0.034086289    1.8794419      4.0143381     -0.0015881302 
      7000   1.2036849      0.024794822    2.3781585      4.2078788     -0.0083081348 
      8000   1.4523338      0.026208293    1.2281628      3.4321456      0.0053996283 
      9000   1.0330635      0.023534184    0.52793784     2.1005507      0.0072207467 
     10000   1.0054281      0.032633514    0.51603811     2.0563111      0.0076277806 
     11000   1.1306917      0.025111132    0.6609046      2.381488       0.0072929785 
     12000   1.2666215      0.031299575    1.003156       2.9337544      0.0063787253 
     13000   1.3776769      0.023553869    5.9113603      8.0007407     -0.040571934  
     14000   1.1733663      0.022946722    0.62837125     2.4107808      0.0082967633 
     15000   1.5137965      0.025012265    1.4403503      3.7353005      0.0037249055 
     16000   1.2331738      0.021922407    0.93542721     2.8064938      0.0053306916 
     17000   1.2805538      0.025453675    0.72951755     2.6751617      0.0084801404 
     18000   1.7813943      0.025357917    1.7025404      4.399099       0.0065253199 
     19000   2.2339766      0.01847606     1.5468369      4.9151608      0.01295107   
     20000   1.0564607      0.026032729    0.58579953     2.195995       0.0064378581 
Loop time of 9.82108 on 1 procs for 20000 steps with 3000 atoms

Performance: 879740.380 tau/day, 2036.436 timesteps/s, 6.109 Matom-step/s
103.4% CPU use with 1 MPI tasks x 1 OpenMP threads

MPI task timing breakdown:
Section |  min time  |  avg time  |  max time  |%varavg| %total
---------------------------------------------------------------
Pair    | 0.39114    | 0.39114    | 0.39114    |   0.0 |  3.98
Bond    | 0.27101    | 0.27101    | 0.27101    |   0.0 |  2.76
Neigh   | 6.3389     | 6.3389     | 6.3389     |   0.0 | 64.54
Comm    | 0.51943    | 0.51943    | 0.51943    |   0.0 |  5.29
Output  | 0.052851   | 0.052851   | 0.052851   |   0.0 |  0.54
Modify  | 2.0536     | 2.0536     | 2.0536     |   0.0 | 20.91
Other   |            | 0.1941     |            |       |  1.98

Nlocal:           3000 ave        3000 max        3000 min
Histogram: 1 0 0 0 0 0 0 0 0 0
Nghost:            762 ave         762 max         762 min
Histogram: 1 0 0 0 0 0 0 0 0 0
Neighs:            438 ave         438 max         438 min
Histogram: 1 0 0 0 0 0 0 0 0 0

Total # of neighbors = 438
Ave neighs/atom = 0.146
Ave special neighs/atom = 2
Neighbor list builds = 15211
Dangerous builds = 12251

##########################################

# pair interactions
# shifted lj to be repulsive wca

pair_style lj/cut 4.0
pair_modify shift yes

pair_coeff * * 2.5 1.0

##########################################

# variables for bell equation

compute bondhinge hinges bond/local engpot
compute bondstic stickers bond/local engpot
variable bhinge equal c_bondhinge
variable bstic equal c_bondstic
compute ke_atom all ke/atom
variable ke atom c_ke_atom

variable ebarrier equal 3 # energy barrier

##########################################

# bond react

# the only intramolecular reaction is the unfolding process
# the intermolecular reactions are all bond formations between each atom type
fix rxn all bond/react stabilization no reset_mol_ids no   react unfolding all 1 3.0 4.5 folded unfolded intramoltemplate/three_bead.map molecule intra   react ssfu all 1 2.0 2.4 pre_ssfu post_ssfu intermoltemplate/sticstic_inter.map molecule inter   react ssff all 1 2.0 2.4 pre_ssff post_ssff intermoltemplate/sticstic_inter.map molecule inter   react ssuu all 1 2.0 2.4 pre_ssuu post_ssuu intermoltemplate/sticstic_inter.map molecule inter   react hhfu all 1 2.0 2.4 pre_hhfu post_hhfu intermoltemplate/hingehinge_inter.map molecule inter   react hhff all 1 2.0 2.4 pre_hhff post_hhff intermoltemplate/hingehinge_inter.map molecule inter   react hhuu all 1 2.0 2.4 pre_hhuu post_hhuu intermoltemplate/hingehinge_inter.map molecule inter   react ishfu all 1 2.0 2.4 pre_ishfu post_ishfu intermoltemplate/instic_hinge_inter.map molecule inter   react ishff all 1 2.0 2.4 pre_ishff post_ishff intermoltemplate/instic_hinge_inter.map molecule inter   react ishuu all 1 2.0 2.4 pre_ishuu post_ishuu intermoltemplate/instic_hinge_inter.map molecule inter   react oshfu all 1 2.0 2.4 pre_oshfu post_oshfu intermoltemplate/outstic_hinge_inter.map molecule inter   react oshff all 1 2.0 2.4 pre_oshff post_oshff intermoltemplate/outstic_hinge_inter.map molecule inter   react oshuu all 1 2.0 2.4 pre_oshuu post_oshuu intermoltemplate/outstic_hinge_inter.map molecule inter
dynamic group bond_react_MASTER_group defined

# keep track of bonds across the system

compute nbonds all count/type bond
variable shintra equal c_nbonds[1]
variable ssintra equal c_nbonds[2]
variable ssinter equal c_nbonds[3]
variable shinter equal c_nbonds[4]
variable hhinter equal c_nbonds[5]

# find separation of atoms for av. bond length


group firstatom id 1
1 atoms in group firstatom
group lastatom id 3
1 atoms in group lastatom

compute cfirst firstatom com
compute clast lastatom com
variable dx equal c_clast[1]-c_cfirst[1]
variable dy equal c_clast[2]-c_cfirst[2]
variable dz equal c_clast[3]-c_cfirst[3]

variable separation equal sqrt(v_dx*v_dx+v_dy*v_dy+v_dz*v_dz)

fix nbondsfile all print 1000 "${t} ${ssintra} ${ssinter} ${shinter} ${hhinter} " file ../output/nbonds.dat screen no


##########################################

#print some system info for analysis

variable Npar equal count(all)

print """
Npar = ${Npar}
Nsteps = ${Nsteps} + ${equilTime}
Nwrite = ${Nwrite}
""" file ../analysis/systemData.py

Npar = 3000
Nsteps = 100000 + 20000
Nwrite = 1000


##########################################

# simulate

# minimize 1.0e-4 1.0e-6 1000 10000

timestep ${tstep}
timestep 0.001
#reset_timestep 0
neigh_modify every 1 delay 2 check yes

run ${Nsteps}
run 100000

CITE-CITE-CITE-CITE-CITE-CITE-CITE-CITE-CITE-CITE-CITE-CITE-CITE

Your simulation uses code contributions which should be cited:

- fix bond/react: reacter.org doi:10.1016/j.polymer.2017.09.038, doi:10.1021/acs.macromol.0c02012, doi:10.1016/j.cpc.2024.109287

@Article{Gissinger17,
 author = {J. R. Gissinger and B. D. Jensen and K. E. Wise},
 title = {Modeling Chemical Reactions in Classical Molecular Dynamics Simulations},
 journal = {Polymer},
 year =    2017,
 volume =  128,
 pages =   {211--217}
}

@Article{Gissinger20,
 author = {J. R. Gissinger, B. D. Jensen, K. E. Wise},
 title = {{REACTER}: A Heuristic Method for Reactive Molecular Dynamics},
 journal = {Macromolecules},
 year =    2020,
 volume =  53,
 number =  22,
 pages =   {9953--9961}
}

@Article{Gissinger24,
 author = {J. R. Gissinger, B. D. Jensen, K. E. Wise},
 title = {Molecular Modeling of Reactive Systems with REACTER},
 journal = {Computer Physics Communications},
 year =    2024,
 volume =  304,
 number =  109287
}

CITE-CITE-CITE-CITE-CITE-CITE-CITE-CITE-CITE-CITE-CITE-CITE-CITE

Generated 0 of 1 mixed pair_coeff terms from geometric mixing rule
Neighbor list info ...
  update: every = 1 steps, delay = 2 steps, check = yes
  max neighbors/atom: 2000, page size: 100000
  master list distance cutoff = 4.3
  ghost atom cutoff = 4.3
  binsize = 2.15, bins = 28 28 28
  2 neighbor lists, perpetual/occasional/extra = 1 1 0
  (1) pair lj/cut, perpetual
      attributes: half, newton on
      pair build: half/bin/newton
      stencil: half/bin/3d
      bin: standard
  (2) fix bond/react, occasional, copy from (1)
      attributes: half, newton on
      pair build: copy
      stencil: none
      bin: none
WARNING: Inconsistent image flags
For more information see https://docs.lammps.org/err0027 (src/domain.cpp:1052)
Per MPI rank memory allocation (min/avg/max) = 7.062 | 7.062 | 7.062 Mbytes
   Step          Temp          E_pair         E_mol          TotEng         Press     
     20000   1.0564607     -0.0099591775   0.58579953     2.1600031      0.0044923867 
     21000   1.011899      -0.032131969    0.59160361     2.0768142      0.0022892065 
     22000   1.0395803     -0.069470518    0.54673699     2.0361171      0.0025022672 
     23000   1.0435235     -0.12916548     0.54413062     1.9797286      0.0028031162 
     24000   1.0519098     -0.2245166      0.52498093     1.8778031      0.002253074  
     25000   1.0564647     -0.34313477     0.54766507     1.7886991      0.0010072593 
     26000   1.0724657     -0.46071326     0.53734842     1.6847975      0.0016216556 
     27000   1.088391      -0.62025813     0.56249753     1.5742818      0.0010652148 
     28000   1.0990349     -0.76293384     0.55082        1.435889       0.0012096841 
     29000   1.0971656     -0.93601226     0.54940082     1.2585884      0.00038314717
     30000   1.1332302     -1.1577195      0.54464473     1.086204       0.00010576373
     31000   1.1552135     -1.3931091      0.55798735     0.89712095    -0.0002938223 
     32000   1.169786      -1.6835099      0.58750304     0.65808723     0.0012379186 
     33000   1.227988      -1.9955998      0.53849884     0.38426709     0.002631698  
     34000   1.2088934     -2.3097841      0.54145943     0.044411025    0.001577335  
     35000   1.2139831     -2.6270278      0.55456402    -0.25209623     0.0016697726 
     36000   1.2680286     -3.0074838      0.56174735    -0.54432758     0.00098098135
     37000   1.2651391     -3.421747       0.56697782    -0.95769307     0.0031184786 
     38000   1.2567794     -3.852387       0.58451222    -1.3833341      0.0024302063 
     39000   1.2394974     -4.2978982      0.63305275    -1.8062192     -0.0011031534 
     40000   1.2263751     -4.6776816      0.62856157    -2.2101706     -0.0011138102 
     41000   1.2801258     -5.1854044      0.65604234    -2.6098135      0.002854341  
     42000   1.2665797     -5.5205697      0.65000464    -2.9713288      0.0054956324 
     43000   1.2621883     -5.9261293      0.6820777     -3.3514002      0.00025750992
     44000   1.2408497     -6.2997172      0.71809192    -3.7209712      0.0021780721 
     45000   1.2549152     -6.694354       0.73373575    -4.0788729      0.00122985   
     46000   1.2551344     -7.0289545      0.74364407    -4.4032364     -0.00018820663
     47000   1.2459305     -7.3465227      0.74524496    -4.7330049      0.0040916405 
     48000   1.2188021     -7.7472926      0.79039708    -5.1293017      0.0033496698 
     49000   1.2341994     -8.0849945      0.77851238    -5.4558002      0.00097937697
     50000   1.2037217     -8.4192334      0.78704742    -5.8272053      0.00018525139
     51000   1.2200173     -8.7981222      0.81192236    -6.1567839      0.00070363617
     52000   1.1757846     -9.0950125      0.86283348    -6.4690899      0.00051074088
     53000   1.1833083     -9.3591334      0.83357683    -6.7511858      0.0021365442 
     54000   1.1587411     -9.6476834      0.83683318    -7.073318      -0.00015319696
     55000   1.1761036     -9.8938791      0.86908771    -7.2612241      0.00057995   
     56000   1.1648164     -10.156139      0.90939573    -7.5001008     -0.00021723158
     57000   1.1340428     -10.287708      0.90174437    -7.6854667      0.0012436143 
     58000   1.1459449     -10.473539      0.92049032    -7.8347045      0.0040310618 
     59000   1.1150165     -10.598855      0.92119636    -8.0056915      0.0011050742 
     60000   1.1155975     -10.750279      0.93020071    -8.1472395     -0.0029362569 
     61000   1.1230284     -10.858657      0.93630041    -8.2383758     -0.0027898655 
     62000   1.1206441     -10.987681      0.9625982     -8.3446773      0.0044812184 
     63000   1.1038995     -11.130897      0.96282635    -8.5127733      0.0048137132 
     64000   1.0687496     -11.230782      0.98232392    -8.6458682     -0.0025664776 
     65000   1.1159837     -11.401723      0.99870456    -8.7296004      0.0032553741 
     66000   1.0716118     -11.506391      1.0386663     -8.8608428      0.0016346958 
     67000   1.0867917     -11.610252      1.0387825     -8.9418254      0.00095330211
     68000   1.0790972     -11.725408      1.0447401     -9.062562      -0.0011994393 
     69000   1.1002207     -11.861076      1.0413153     -9.1699798      0.00059045148
     70000   1.0679552     -11.981709      1.0426199     -9.3376906      0.0013894177 
     71000   1.0678311     -12.114824      1.0754603     -9.4381504      0.00067302903
     72000   1.0705198     -12.255126      1.077524      -9.5723577      0.001066537  
     73000   1.0482315     -12.337335      1.0781366     -9.6873757     -0.00031974631
     74000   1.0282329     -12.404181      1.0798377     -9.7825086      0.0014905009 
     75000   1.0596323     -12.58283       1.0887872     -9.9051243      0.0012871612 
     76000   1.0595037     -12.64781       1.1035522     -9.9555319      0.002548091  
     77000   1.0707348     -12.735753      1.1011103     -10.029076      0.0016713921 
     78000   1.0534225     -12.822321      1.1305259     -10.112188      0.00077124477
     79000   1.0559786     -12.947744      1.1436618     -10.220643      0.0028248598 
     80000   1.0804351     -13.035105      1.1429792     -10.272013      0.0034855028 
     81000   1.0380182     -13.06006       1.1471123     -10.35644       0.0032571084 
     82000   1.0449601     -13.1528        1.1386703     -10.447212      0.0023068204 
     83000   1.0412426     -13.213272      1.1417982     -10.510131     -0.00094125225
     84000   1.0259029     -13.252321      1.1427697     -10.57121      -0.00098407387
     85000   1.0495902     -13.37803       1.1465746     -10.657595      0.002014957  
     86000   1.0450984     -13.347144      1.1412191     -10.6388        0.0035070045 
     87000   1.0293501     -13.372671      1.1562639     -10.672896     -0.0016047501 
     88000   1.0229209     -13.435228      1.1441257     -10.757232     -0.00077485401
     89000   1.0259041     -13.48467       1.1581869     -10.788139      0.0048783245 
     90000   1.0307593     -13.529847      1.1595884     -10.824635      0.00015589876
     91000   1.0228083     -13.619658      1.1727648     -10.913193      0.0034847214 
     92000   1.0098326     -13.654981      1.1869788     -10.953758      0.00018032526
     93000   1.0219562     -13.70081       1.1909785     -10.977408      0.00049624357
     94000   1.043813      -13.807133      1.2026706     -11.039265      0.0046816974 
     95000   1.0680876     -13.870132      1.2001846     -11.06835      -0.0034343846 
     96000   1.0841782     -13.949095      1.2017735     -11.121596      2.5787057e-06
     97000   1.0531757     -14.076756      1.2177885     -11.279731     -0.0018124932 
     98000   1.0684705     -14.138429      1.2329897     -11.303268      0.0037395857 
     99000   1.0548475     -14.21827       1.2474826     -11.389044     -0.0012879656 
    100000   1.0349946     -14.316707      1.2645471     -11.500186     -0.002563157  
    101000   1.0392448     -14.401438      1.2751649     -11.567925     -9.7820209e-05
    102000   1.0389593     -14.483929      1.2905117     -11.635498     -0.0007407111 
    103000   1.0355525     -14.471366      1.2760625     -11.642493     -0.0022217558 
    104000   1.0266069     -14.520227      1.2979174     -11.682912      0.0038744085 
    105000   1.0358469     -14.596826      1.3016824     -11.741892     -0.0029951242 
    106000   1.0143818     -14.616056      1.2990581     -11.795932     -0.0017635305 
    107000   1.0183452     -14.673541      1.3090959     -11.837436      0.005788311  
    108000   0.99791291    -14.680769      1.3000885     -11.88431      -0.0056450648 
    109000   1.0082862     -14.707746      1.2876106     -11.90821       0.0033079374 
    110000   1.0342611     -14.759532      1.3108306     -11.897827      0.0044205205 
    111000   1.0024912     -14.77722       1.3214713     -11.952514      0.0014116843 
    112000   1.0117279     -14.810266      1.3265367     -11.966643     -0.00061713674
    113000   1.0455643     -14.872328      1.3227283     -11.981776      0.00023570703
    114000   1.026176      -14.875738      1.3164159     -12.020571      0.00081765097
    115000   1.0207931     -14.971935      1.3329604     -12.108295      0.00042743143
    116000   1.0135325     -15.047801      1.3512917     -12.176717      0.0056627643 
    117000   1.0378158     -15.094098      1.3471315     -12.190761     -5.7193609e-05
    118000   1.040381      -15.200946      1.3722876     -12.268607      0.0071279775 
    119000   1.0343965     -15.28367       1.3809895     -12.351603      0.0010666905 
    120000   1.0314577     -15.3324        1.3779976     -12.407732      0.0012551857 
Loop time of 592.061 on 1 procs for 100000 steps with 3000 atoms

Performance: 14593.083 tau/day, 168.901 timesteps/s, 506.704 katom-step/s
99.8% CPU use with 1 MPI tasks x 1 OpenMP threads

MPI task timing breakdown:
Section |  min time  |  avg time  |  max time  |%varavg| %total
---------------------------------------------------------------
Pair    | 12.569     | 12.569     | 12.569     |   0.0 |  2.12
Bond    | 1.4486     | 1.4486     | 1.4486     |   0.0 |  0.24
Neigh   | 3.1331     | 3.1331     | 3.1331     |   0.0 |  0.53
Comm    | 0.50426    | 0.50426    | 0.50426    |   0.0 |  0.09
Output  | 0.27584    | 0.27584    | 0.27584    |   0.0 |  0.05
Modify  | 573.44     | 573.44     | 573.44     |   0.0 | 96.86
Other   |            | 0.688      |            |       |  0.12

Nlocal:           3000 ave        3000 max        3000 min
Histogram: 1 0 0 0 0 0 0 0 0 0
Nghost:           1223 ave        1223 max        1223 min
Histogram: 1 0 0 0 0 0 0 0 0 0
Neighs:          42607 ave       42607 max       42607 min
Histogram: 1 0 0 0 0 0 0 0 0 0

Total # of neighbors = 42607
Ave neighs/atom = 14.202333
Ave special neighs/atom = 4.6966667
Neighbor list builds = 4104
Dangerous builds = 0
Total wall time: 0:10:01
