LAMMPS config file for N 3 bead models

3000 atoms
3000 bonds
2 atom types
5 bond types

#Sim box size
-30 30 xlo xhi
-30 30 ylo yhi
-30 30 zlo zhi

Masses
#AtomID mass
1  1
2  1

Atoms
#atomID moleculeID atomType X Y Z
1 1 1 -16.69010087387034 25.73241494949962 -22.709358048626843 
2 1 2 -14.690100873870339 25.73241494949962 -22.709358048626843 
3 1 1 -13.690100873870339 27.4644657570685 -22.709358048626843 
4 2 1 -9.197354723685248 -22.078309152724096 -9.208724519777729 
5 2 2 -7.1973547236852475 -22.078309152724096 -9.208724519777729 
6 2 1 -6.1973547236852475 -20.346258345155217 -9.208724519777729 
7 3 1 -5.448977164539166 -1.7588422686947744 3.0258009687211924 
8 3 2 -3.4489771645391656 -1.7588422686947744 3.0258009687211924 
9 3 1 -2.4489771645391656 -0.026791461125897253 3.0258009687211924 
10 4 1 -4.56805053543815 11.858453099597895 -13.144088076532887 
11 4 2 -2.56805053543815 11.858453099597895 -13.144088076532887 
12 4 1 -1.5680505354381502 13.590503907166772 -13.144088076532887 
13 5 1 1.3317046625586748 3.3524897282752306 4.97066814313515 
14 5 2 3.331704662558675 3.3524897282752306 4.97066814313515 
15 5 1 4.331704662558675 5.084540535844107 4.97066814313515 
16 6 1 23.083562491671685 -11.055070016117384 -15.277285262061323 
17 6 2 25.083562491671685 -11.055070016117384 -15.277285262061323 
18 6 1 26.083562491671685 -9.323019208548507 -15.277285262061323 
19 7 1 -17.79068635981156 -4.711735449106378 21.895006498517432 
20 7 2 -15.790686359811557 -4.711735449106378 21.895006498517432 
21 7 1 -14.790686359811557 -2.9796846415375007 21.895006498517432 
22 8 1 22.691380909300896 -14.306542336510663 8.232705995953133 
23 8 2 24.691380909300896 -14.306542336510663 8.232705995953133 
24 8 1 25.691380909300896 -12.574491528941786 8.232705995953133 
25 9 1 20.35209407041456 22.4139792634874 -18.058447147183614 
26 9 2 22.35209407041456 22.4139792634874 -18.058447147183614 
27 9 1 23.35209407041456 24.146030071056277 -18.058447147183614 
28 10 1 4.433769842607973 -10.688543215957484 16.645819235536692 
29 10 2 6.433769842607973 -10.688543215957484 16.645819235536692 
30 10 1 7.433769842607973 -8.956492408388607 16.645819235536692 
31 11 1 -24.23334837463175 22.450361086451096 10.178673954375434 
32 11 2 -22.23334837463175 22.450361086451096 10.178673954375434 
33 11 1 -21.23334837463175 24.182411894019975 10.178673954375434 
34 12 1 3.215869407467693 22.725862047244107 21.043154413391115 
35 12 2 5.215869407467693 22.725862047244107 21.043154413391115 
36 12 1 6.215869407467693 24.457912854812985 21.043154413391115 
37 13 1 -11.83194037440905 13.421157561153422 -9.009848767925092 
38 13 2 -9.83194037440905 13.421157561153422 -9.009848767925092 
39 13 1 -8.83194037440905 15.153208368722298 -9.009848767925092 
40 14 1 -25.043069020903516 4.933561195725844 16.605770176106724 
41 14 2 -23.043069020903516 4.933561195725844 16.605770176106724 
42 14 1 -22.043069020903516 6.66561200329472 16.605770176106724 
43 15 1 1.0402958955226786 5.490873903028941 -19.634230732516453 
44 15 2 3.0402958955226786 5.490873903028941 -19.634230732516453 
45 15 1 4.040295895522679 7.222924710597818 -19.634230732516453 
46 16 1 -0.42693539455123286 -18.59758818251151 -1.580384628275322 
47 16 2 1.5730646054487671 -18.59758818251151 -1.580384628275322 
48 16 1 2.573064605448767 -16.865537374942633 -1.580384628275322 
49 17 1 11.687769540115845 21.16172231944833 -21.853444614766104 
50 17 2 13.687769540115845 21.16172231944833 -21.853444614766104 
51 17 1 14.687769540115845 22.89377312701721 -21.853444614766104 
52 18 1 -12.226031269685915 -19.437893148937505 -2.382791048114612 
53 18 2 -10.226031269685915 -19.437893148937505 -2.382791048114612 
54 18 1 -9.226031269685915 -17.705842341368626 -2.382791048114612 
55 19 1 13.301606059139033 -6.498151127866436 23.203973273615816 
56 19 2 15.301606059139033 -6.498151127866436 23.203973273615816 
57 19 1 16.301606059139033 -4.766100320297559 23.203973273615816 
58 20 1 0.23199046771680543 -2.2258925789911572 25.873548794755067 
59 20 2 2.2319904677168054 -2.2258925789911572 25.873548794755067 
60 20 1 3.2319904677168054 -0.49384177142228003 25.873548794755067 
61 21 1 21.058131725828297 -12.719695194767835 -22.58462296194959 
62 21 2 23.058131725828297 -12.719695194767835 -22.58462296194959 
63 21 1 24.058131725828297 -10.987644387198959 -22.58462296194959 
64 22 1 12.496383941306298 17.729313347868775 -0.7783717867023583 
65 22 2 14.496383941306298 17.729313347868775 -0.7783717867023583 
66 22 1 15.496383941306298 19.461364155437654 -0.7783717867023583 
67 23 1 -22.60642141356989 1.8931712109431516 21.31778341524958 
68 23 2 -20.60642141356989 1.8931712109431516 21.31778341524958 
69 23 1 -19.60642141356989 3.6252220185120287 21.31778341524958 
70 24 1 -10.309270230427334 -19.14461543202334 0.730268541879429 
71 24 2 -8.309270230427334 -19.14461543202334 0.730268541879429 
72 24 1 -7.309270230427334 -17.41256462445446 0.730268541879429 
73 25 1 20.822707056166337 -17.635275246273718 -22.035120513778956 
74 25 2 22.822707056166337 -17.635275246273718 -22.035120513778956 
75 25 1 23.822707056166337 -15.903224438704841 -22.035120513778956 
76 26 1 17.35544976841161 23.44463681068723 14.57833109018597 
77 26 2 19.35544976841161 23.44463681068723 14.57833109018597 
78 26 1 20.35544976841161 25.176687618256107 14.57833109018597 
79 27 1 -16.087267187353177 -9.842618060296754 24.232128533391375 
80 27 2 -14.087267187353177 -9.842618060296754 24.232128533391375 
81 27 1 -13.087267187353177 -8.110567252727877 24.232128533391375 
82 28 1 23.83753176282837 -18.338893754108042 12.930432789030064 
83 28 2 25.83753176282837 -18.338893754108042 12.930432789030064 
84 28 1 26.83753176282837 -16.606842946539164 12.930432789030064 
85 29 1 -18.154089037543784 -16.012810546041255 -9.585694273379925 
86 29 2 -16.154089037543784 -16.012810546041255 -9.585694273379925 
87 29 1 -15.154089037543784 -14.280759738472378 -9.585694273379925 
88 30 1 -16.608043265084927 -21.13592554662571 2.505901623775454 
89 30 2 -14.608043265084927 -21.13592554662571 2.505901623775454 
90 30 1 -13.608043265084927 -19.403874739056832 2.505901623775454 
91 31 1 -25.870757218553496 -4.7410724784763545 6.613637279787447 
92 31 2 -23.870757218553496 -4.7410724784763545 6.613637279787447 
93 31 1 -22.870757218553496 -3.0090216709074773 6.613637279787447 
94 32 1 6.91404257841851 5.737475344029903 -5.593155524067338 
95 32 2 8.91404257841851 5.737475344029903 -5.593155524067338 
96 32 1 9.91404257841851 7.46952615159878 -5.593155524067338 
97 33 1 -3.1632975243028127 -6.807419477539693 -1.6940149016863408 
98 33 2 -1.1632975243028127 -6.807419477539693 -1.6940149016863408 
99 33 1 -0.16329752430281275 -5.075368669970816 -1.6940149016863408 
100 34 1 15.4825754338206 17.590805194109038 8.470882862652871 
101 34 2 17.4825754338206 17.590805194109038 8.470882862652871 
102 34 1 18.4825754338206 19.322856001677916 8.470882862652871 
103 35 1 5.659964865697788 11.679301926468668 0.2691289618359711 
104 35 2 7.659964865697788 11.679301926468668 0.2691289618359711 
105 35 1 8.659964865697788 13.411352734037544 0.2691289618359711 
106 36 1 20.085982884841634 21.435747872250595 4.388057010444626 
107 36 2 22.085982884841634 21.435747872250595 4.388057010444626 
108 36 1 23.085982884841634 23.167798679819473 4.388057010444626 
109 37 1 14.083756365368039 13.64677984625763 25.59258034016984 
110 37 2 16.08375636536804 13.64677984625763 25.59258034016984 
111 37 1 17.08375636536804 15.378830653826506 25.59258034016984 
112 38 1 -9.415818117807977 8.85307021112957 -20.253575121043284 
113 38 2 -7.4158181178079765 8.85307021112957 -20.253575121043284 
114 38 1 -6.4158181178079765 10.585121018698446 -20.253575121043284 
115 39 1 10.882835868667776 13.740260633133659 23.127927090061057 
116 39 2 12.882835868667776 13.740260633133659 23.127927090061057 
117 39 1 13.882835868667776 15.472311440702535 23.127927090061057 
118 40 1 -9.700486187690192 3.497559589677646 2.4334465945495154 
119 40 2 -7.700486187690192 3.497559589677646 2.4334465945495154 
120 40 1 -6.700486187690192 5.229610397246523 2.4334465945495154 
121 41 1 -4.842294225442508 -10.034363020073247 -10.2315214284788 
122 41 2 -2.842294225442508 -10.034363020073247 -10.2315214284788 
123 41 1 -1.842294225442508 -8.30231221250437 -10.2315214284788 
124 42 1 -19.715442663412958 10.36215167977906 -4.774873270854634 
125 42 2 -17.715442663412958 10.36215167977906 -4.774873270854634 
126 42 1 -16.715442663412958 12.094202487347937 -4.774873270854634 
127 43 1 14.894783095691132 -14.817727668103181 17.24339525902694 
128 43 2 16.894783095691132 -14.817727668103181 17.24339525902694 
129 43 1 17.894783095691132 -13.085676860534305 17.24339525902694 
130 44 1 9.768437084487587 11.458121572459973 -18.76920571842131 
131 44 2 11.768437084487587 11.458121572459973 -18.76920571842131 
132 44 1 12.768437084487587 13.19017238002885 -18.76920571842131 
133 45 1 5.250329597777913 21.03859019294827 -19.452174357584354 
134 45 2 7.250329597777913 21.03859019294827 -19.452174357584354 
135 45 1 8.250329597777913 22.77064100051715 -19.452174357584354 
136 46 1 16.346372313276888 19.628136888628525 4.485181649366666 
137 46 2 18.346372313276888 19.628136888628525 4.485181649366666 
138 46 1 19.346372313276888 21.360187696197404 4.485181649366666 
139 47 1 -0.882253861428616 21.639502001460855 4.791592635088126 
140 47 2 1.117746138571384 21.639502001460855 4.791592635088126 
141 47 1 2.117746138571384 23.371552809029733 4.791592635088126 
142 48 1 -20.455944877527273 -22.142200382456878 17.111917325636085 
143 48 2 -18.455944877527273 -22.142200382456878 17.111917325636085 
144 48 1 -17.455944877527273 -20.410149574888 17.111917325636085 
145 49 1 4.897866050768265 25.402722297127568 1.1652848573598291 
146 49 2 6.897866050768265 25.402722297127568 1.1652848573598291 
147 49 1 7.897866050768265 27.134773104696446 1.1652848573598291 
148 50 1 4.470600880654445 -7.453330605636385 -26.975787728143473 
149 50 2 6.470600880654445 -7.453330605636385 -26.975787728143473 
150 50 1 7.470600880654445 -5.721279798067508 -26.975787728143473 
151 51 1 21.851076450998832 -21.48911075059226 -25.81588001430761 
152 51 2 23.851076450998832 -21.48911075059226 -25.81588001430761 
153 51 1 24.851076450998832 -19.757059943023382 -25.81588001430761 
154 52 1 19.48947187505174 -21.946562119407183 25.488651310117447 
155 52 2 21.48947187505174 -21.946562119407183 25.488651310117447 
156 52 1 22.48947187505174 -20.214511311838304 25.488651310117447 
157 53 1 -13.200372624258467 2.959944177023093 -18.923993852866566 
158 53 2 -11.200372624258467 2.959944177023093 -18.923993852866566 
159 53 1 -10.200372624258467 4.69199498459197 -18.923993852866566 
160 54 1 -13.992731495785508 -24.03819191915234 -8.839531403951941 
161 54 2 -11.992731495785508 -24.03819191915234 -8.839531403951941 
162 54 1 -10.992731495785508 -22.30614111158346 -8.839531403951941 
163 55 1 -19.096193489225946 -12.931412409624357 15.871931719029376 
164 55 2 -17.096193489225946 -12.931412409624357 15.871931719029376 
165 55 1 -16.096193489225946 -11.19936160205548 15.871931719029376 
166 56 1 -10.449169063083438 -21.705234962666196 23.208182502959808 
167 56 2 -8.449169063083438 -21.705234962666196 23.208182502959808 
168 56 1 -7.449169063083438 -19.973184155097318 23.208182502959808 
169 57 1 2.473037313580903 -19.25805566575003 -23.944359131998247 
170 57 2 4.473037313580903 -19.25805566575003 -23.944359131998247 
171 57 1 5.473037313580903 -17.526004858181153 -23.944359131998247 
172 58 1 -8.92836758310117 14.8283116233682 -23.910658652350033 
173 58 2 -6.928367583101171 14.8283116233682 -23.910658652350033 
174 58 1 -5.928367583101171 16.56036243093708 -23.910658652350033 
175 59 1 17.723155324375398 -0.7632826319903749 23.825460902602963 
176 59 2 19.723155324375398 -0.7632826319903749 23.825460902602963 
177 59 1 20.723155324375398 0.9687681755785023 23.825460902602963 
178 60 1 1.313492190800197 15.507063650323111 -1.2196329868172242 
179 60 2 3.313492190800197 15.507063650323111 -1.2196329868172242 
180 60 1 4.313492190800197 17.23911445789199 -1.2196329868172242 
181 61 1 -1.2183796967761253 -15.563343851455443 21.380137263410212 
182 61 2 0.7816203032238747 -15.563343851455443 21.380137263410212 
183 61 1 1.7816203032238747 -13.831293043886566 21.380137263410212 
184 62 1 -3.499543667270398 -0.3178500690017714 10.19982724344301 
185 62 2 -1.4995436672703981 -0.3178500690017714 10.19982724344301 
186 62 1 -0.4995436672703981 1.4142007385671058 10.19982724344301 
187 63 1 -14.660234781853593 -19.358219085989592 9.446583880189849 
188 63 2 -12.660234781853593 -19.358219085989592 9.446583880189849 
189 63 1 -11.660234781853593 -17.626168278420714 9.446583880189849 
190 64 1 -24.955382599405155 11.275593801748215 -12.441500770183374 
191 64 2 -22.955382599405155 11.275593801748215 -12.441500770183374 
192 64 1 -21.955382599405155 13.007644609317092 -12.441500770183374 
193 65 1 -13.9705904992804 -17.266472549234035 17.287625235489003 
194 65 2 -11.9705904992804 -17.266472549234035 17.287625235489003 
195 65 1 -10.9705904992804 -15.534421741665158 17.287625235489003 
196 66 1 21.64361324656131 2.8629606613438767 -26.754561249265116 
197 66 2 23.64361324656131 2.8629606613438767 -26.754561249265116 
198 66 1 24.64361324656131 4.5950114689127535 -26.754561249265116 
199 67 1 8.101625368861178 -23.367673508895702 -9.24189258642281 
200 67 2 10.101625368861178 -23.367673508895702 -9.24189258642281 
201 67 1 11.101625368861178 -21.635622701326824 -9.24189258642281 
202 68 1 12.950598586073298 -7.6960798738946 -14.764578920631907 
203 68 2 14.950598586073298 -7.6960798738946 -14.764578920631907 
204 68 1 15.950598586073298 -5.964029066325724 -14.764578920631907 
205 69 1 -12.606385472120003 -7.175034243750996 8.414395579707694 
206 69 2 -10.606385472120003 -7.175034243750996 8.414395579707694 
207 69 1 -9.606385472120003 -5.44298343618212 8.414395579707694 
208 70 1 -25.260587823433223 -4.832579314057071 -8.696859749943567 
209 70 2 -23.260587823433223 -4.832579314057071 -8.696859749943567 
210 70 1 -22.260587823433223 -3.100528506488194 -8.696859749943567 
211 71 1 -21.503926362514278 -3.497575694851058 2.385128687454845 
212 71 2 -19.503926362514278 -3.497575694851058 2.385128687454845 
213 71 1 -18.503926362514278 -1.7655248872821807 2.385128687454845 
214 72 1 -28.833156124950726 -16.948813670550134 -21.96599867739509 
215 72 2 -26.833156124950726 -16.948813670550134 -21.96599867739509 
216 72 1 -25.833156124950726 -15.216762862981257 -21.96599867739509 
217 73 1 -6.623098113934255 14.591007935396973 21.838583809745437 
218 73 2 -4.623098113934255 14.591007935396973 21.838583809745437 
219 73 1 -3.6230981139342546 16.323058742965852 21.838583809745437 
220 74 1 -1.7715384117966195 -15.071696799458731 2.194607866666299 
221 74 2 0.22846158820338047 -15.071696799458731 2.194607866666299 
222 74 1 1.2284615882033805 -13.339645991889855 2.194607866666299 
223 75 1 -22.479652332800367 8.64676813279047 -25.760312798826074 
224 75 2 -20.479652332800367 8.64676813279047 -25.760312798826074 
225 75 1 -19.479652332800367 10.378818940359347 -25.760312798826074 
226 76 1 -3.426461254363808 9.384409420801617 -2.4220681726286166 
227 76 2 -1.426461254363808 9.384409420801617 -2.4220681726286166 
228 76 1 -0.426461254363808 11.116460228370494 -2.4220681726286166 
229 77 1 -9.552598000411471 7.131194519629133 -21.750461088025897 
230 77 2 -7.5525980004114714 7.131194519629133 -21.750461088025897 
231 77 1 -6.5525980004114714 8.86324532719801 -21.750461088025897 
232 78 1 20.35185938146357 -6.182685781843272 -8.457902330034091 
233 78 2 22.35185938146357 -6.182685781843272 -8.457902330034091 
234 78 1 23.35185938146357 -4.450634974274395 -8.457902330034091 
235 79 1 -7.672392697638237 -2.0920444767323367 -21.097659964092287 
236 79 2 -5.672392697638237 -2.0920444767323367 -21.097659964092287 
237 79 1 -4.672392697638237 -0.35999366916345954 -21.097659964092287 
238 80 1 19.03122938110002 -4.671015297251476 13.286057958831705 
239 80 2 21.03122938110002 -4.671015297251476 13.286057958831705 
240 80 1 22.03122938110002 -2.9389644896825984 13.286057958831705 
241 81 1 -28.57759382659837 26.651002600517785 -1.606689515988215 
242 81 2 -26.57759382659837 26.651002600517785 -1.606689515988215 
243 81 1 -25.57759382659837 28.383053408086663 -1.606689515988215 
244 82 1 10.092694323644245 5.4747628650906535 19.654652985821926 
245 82 2 12.092694323644245 5.4747628650906535 19.654652985821926 
246 82 1 13.092694323644245 7.20681367265953 19.654652985821926 
247 83 1 8.986647134336863 -25.485523616972912 -9.598243490063876 
248 83 2 10.986647134336863 -25.485523616972912 -9.598243490063876 
249 83 1 11.986647134336863 -23.753472809404034 -9.598243490063876 
250 84 1 -17.400080230968598 -23.031830964305623 18.005225128957754 
251 84 2 -15.4000802309686 -23.031830964305623 18.005225128957754 
252 84 1 -14.4000802309686 -21.299780156736745 18.005225128957754 
253 85 1 13.809133038907618 -6.824868816833835 25.54966170331518 
254 85 2 15.809133038907618 -6.824868816833835 25.54966170331518 
255 85 1 16.809133038907618 -5.092818009264958 25.54966170331518 
256 86 1 1.7543357773753314 15.564251696124956 -25.3206741674247 
257 86 2 3.7543357773753314 15.564251696124956 -25.3206741674247 
258 86 1 4.754335777375331 17.296302503693834 -25.3206741674247 
259 87 1 10.369424118701119 -23.205615257847395 10.171123346277263 
260 87 2 12.369424118701119 -23.205615257847395 10.171123346277263 
261 87 1 13.369424118701119 -21.473564450278516 10.171123346277263 
262 88 1 14.906576928521503 -0.42109108258676997 8.091264608946581 
263 88 2 16.906576928521503 -0.42109108258676997 8.091264608946581 
264 88 1 17.906576928521503 1.3109597249821072 8.091264608946581 
265 89 1 14.448850672695237 16.264599487502096 -3.3796905921503004 
266 89 2 16.448850672695237 16.264599487502096 -3.3796905921503004 
267 89 1 17.448850672695237 17.996650295070975 -3.3796905921503004 
268 90 1 5.9237824966940025 24.254815378746706 26.210675089113423 
269 90 2 7.9237824966940025 24.254815378746706 26.210675089113423 
270 90 1 8.923782496694002 25.986866186315584 26.210675089113423 
271 91 1 24.654247540178716 11.706221632144178 -14.595768875453507 
272 91 2 26.654247540178716 11.706221632144178 -14.595768875453507 
273 91 1 27.654247540178716 13.438272439713055 -14.595768875453507 
274 92 1 -25.336178298550685 6.350575217498324 -13.084013367532302 
275 92 2 -23.336178298550685 6.350575217498324 -13.084013367532302 
276 92 1 -22.336178298550685 8.082626025067201 -13.084013367532302 
277 93 1 2.9555317622976105 1.8497910999808127 -23.970721458507803 
278 93 2 4.9555317622976105 1.8497910999808127 -23.970721458507803 
279 93 1 5.9555317622976105 3.58184190754969 -23.970721458507803 
280 94 1 -17.52615020329352 21.143231004560683 0.418954268776492 
281 94 2 -15.526150203293518 21.143231004560683 0.418954268776492 
282 94 1 -14.526150203293518 22.87528181212956 0.418954268776492 
283 95 1 -28.41392420964013 -0.9295564095202096 7.724257845082747 
284 95 2 -26.41392420964013 -0.9295564095202096 7.724257845082747 
285 95 1 -25.41392420964013 0.8024943980486676 7.724257845082747 
286 96 1 -24.59573366648305 -12.278062180223225 -0.1838154708798747 
287 96 2 -22.59573366648305 -12.278062180223225 -0.1838154708798747 
288 96 1 -21.59573366648305 -10.546011372654348 -0.1838154708798747 
289 97 1 16.903703195540388 1.5364618479242225 -0.2824806868923453 
290 97 2 18.903703195540388 1.5364618479242225 -0.2824806868923453 
291 97 1 19.903703195540388 3.2685126554930997 -0.2824806868923453 
292 98 1 -8.378676125367427 23.300512153593253 -25.561963469839206 
293 98 2 -6.378676125367427 23.300512153593253 -25.561963469839206 
294 98 1 -5.378676125367427 25.03256296116213 -25.561963469839206 
295 99 1 -2.9547459887545315 4.5403665633582975 -19.506193948898492 
296 99 2 -0.9547459887545315 4.5403665633582975 -19.506193948898492 
297 99 1 0.04525401124546846 6.272417370927174 -19.506193948898492 
298 100 1 -3.9802653031946633 -0.4129051496030165 3.8703084305027744 
299 100 2 -1.9802653031946633 -0.4129051496030165 3.8703084305027744 
300 100 1 -0.9802653031946633 1.3191456579658607 3.8703084305027744 
301 101 1 24.805235023627866 -23.39300627841706 0.23350596033861848 
302 101 2 26.805235023627866 -23.39300627841706 0.23350596033861848 
303 101 1 27.805235023627866 -21.660955470848183 0.23350596033861848 
304 102 1 23.125671777041646 25.173754010842302 -20.299523418266425 
305 102 2 25.125671777041646 25.173754010842302 -20.299523418266425 
306 102 1 26.125671777041646 26.90580481841118 -20.299523418266425 
307 103 1 -1.2128069223395386 -26.909062788854154 -21.885288455733395 
308 103 2 0.7871930776604614 -26.909062788854154 -21.885288455733395 
309 103 1 1.7871930776604614 -25.177011981285276 -21.885288455733395 
310 104 1 23.296456493738006 23.336589075313682 -9.349835531592657 
311 104 2 25.296456493738006 23.336589075313682 -9.349835531592657 
312 104 1 26.296456493738006 25.06863988288256 -9.349835531592657 
313 105 1 -8.829877014701104 -25.562298862836 18.0980035607221 
314 105 2 -6.829877014701104 -25.562298862836 18.0980035607221 
315 105 1 -5.829877014701104 -23.83024805526712 18.0980035607221 
316 106 1 -15.988538436999654 -12.92935993110884 11.961839936147925 
317 106 2 -13.988538436999654 -12.92935993110884 11.961839936147925 
318 106 1 -12.988538436999654 -11.197309123539963 11.961839936147925 
319 107 1 20.024237221471466 -14.028530704023767 -2.942148141123269 
320 107 2 22.024237221471466 -14.028530704023767 -2.942148141123269 
321 107 1 23.024237221471466 -12.29647989645489 -2.942148141123269 
322 108 1 2.3416484124610513 -24.137532009618607 -13.181583384516312 
323 108 2 4.341648412461051 -24.137532009618607 -13.181583384516312 
324 108 1 5.341648412461051 -22.405481202049728 -13.181583384516312 
325 109 1 -10.387163415550265 -18.93993325038478 12.877039370376814 
326 109 2 -8.387163415550265 -18.93993325038478 12.877039370376814 
327 109 1 -7.3871634155502655 -17.2078824428159 12.877039370376814 
328 110 1 5.958683742492475 -8.768265681050867 1.3091762132739397 
329 110 2 7.958683742492475 -8.768265681050867 1.3091762132739397 
330 110 1 8.958683742492475 -7.03621487348199 1.3091762132739397 
331 111 1 24.039742416937557 9.66685570301631 16.41078351807075 
332 111 2 26.039742416937557 9.66685570301631 16.41078351807075 
333 111 1 27.039742416937557 11.398906510585187 16.41078351807075 
334 112 1 3.6393047968485774 -0.6509906813067552 9.579880139076593 
335 112 2 5.639304796848577 -0.6509906813067552 9.579880139076593 
336 112 1 6.639304796848577 1.081060126262122 9.579880139076593 
337 113 1 10.624264934526785 -19.373605764683525 9.68450570004677 
338 113 2 12.624264934526785 -19.373605764683525 9.68450570004677 
339 113 1 13.624264934526785 -17.641554957114646 9.68450570004677 
340 114 1 -4.036866761136942 -16.985708840318622 15.611294740410159 
341 114 2 -2.0368667611369418 -16.985708840318622 15.611294740410159 
342 114 1 -1.0368667611369418 -15.253658032749746 15.611294740410159 
343 115 1 15.447982801162496 -2.2524802481578057 4.058069495360229 
344 115 2 17.447982801162496 -2.2524802481578057 4.058069495360229 
345 115 1 18.447982801162496 -0.5204294405889285 4.058069495360229 
346 116 1 0.5351444307494759 -13.062164628741675 11.192707929796136 
347 116 2 2.535144430749476 -13.062164628741675 11.192707929796136 
348 116 1 3.535144430749476 -11.330113821172798 11.192707929796136 
349 117 1 -3.171489423633947 -23.175111840932452 3.9624200445010835 
350 117 2 -1.1714894236339468 -23.175111840932452 3.9624200445010835 
351 117 1 -0.1714894236339468 -21.443061033363573 3.9624200445010835 
352 118 1 -18.914457236637958 25.401088022716884 -17.62062672177084 
353 118 2 -16.914457236637958 25.401088022716884 -17.62062672177084 
354 118 1 -15.914457236637958 27.133138830285763 -17.62062672177084 
355 119 1 20.945387850091997 -1.9242455381680479 -4.416141092871655 
356 119 2 22.945387850091997 -1.9242455381680479 -4.416141092871655 
357 119 1 23.945387850091997 -0.1921947305991707 -4.416141092871655 
358 120 1 7.1615267754950125 18.93951697968238 7.907443821039486 
359 120 2 9.161526775495012 18.93951697968238 7.907443821039486 
360 120 1 10.161526775495012 20.67156778725126 7.907443821039486 
361 121 1 -5.024997348541152 11.03812924407788 11.784582785237113 
362 121 2 -3.0249973485411523 11.03812924407788 11.784582785237113 
363 121 1 -2.0249973485411523 12.770180051646756 11.784582785237113 
364 122 1 17.595747037869707 20.859279750318734 14.458249557668829 
365 122 2 19.595747037869707 20.859279750318734 14.458249557668829 
366 122 1 20.595747037869707 22.591330557887613 14.458249557668829 
367 123 1 -1.1429358931794518 6.561064729192921 -18.141874378968247 
368 123 2 0.8570641068205482 6.561064729192921 -18.141874378968247 
369 123 1 1.8570641068205482 8.293115536761798 -18.141874378968247 
370 124 1 -25.58839414856064 -20.91216331507066 0.9366580346688806 
371 124 2 -23.58839414856064 -20.91216331507066 0.9366580346688806 
372 124 1 -22.58839414856064 -19.180112507501782 0.9366580346688806 
373 125 1 -3.2948238402158374 -4.556446319325602 -12.974009980339556 
374 125 2 -1.2948238402158374 -4.556446319325602 -12.974009980339556 
375 125 1 -0.2948238402158374 -2.8243955117567245 -12.974009980339556 
376 126 1 2.2096258038770635 -10.858950801719928 -26.51283755317624 
377 126 2 4.2096258038770635 -10.858950801719928 -26.51283755317624 
378 126 1 5.2096258038770635 -9.126899994151051 -26.51283755317624 
379 127 1 -0.7357512135144155 -19.9797588931608 -20.92729015996072 
380 127 2 1.2642487864855845 -19.9797588931608 -20.92729015996072 
381 127 1 2.2642487864855845 -18.24770808559192 -20.92729015996072 
382 128 1 -6.912169934375552 19.047976410898443 -3.3240571236731995 
383 128 2 -4.912169934375552 19.047976410898443 -3.3240571236731995 
384 128 1 -3.9121699343755516 20.78002721846732 -3.3240571236731995 
385 129 1 17.064690795250726 10.83853469163612 13.235978908181607 
386 129 2 19.064690795250726 10.83853469163612 13.235978908181607 
387 129 1 20.064690795250726 12.570585499204997 13.235978908181607 
388 130 1 5.134215471575011 -6.945314057519319 -14.962035570624577 
389 130 2 7.134215471575011 -6.945314057519319 -14.962035570624577 
390 130 1 8.134215471575011 -5.213263249950442 -14.962035570624577 
391 131 1 14.06219744872859 -4.778527067964557 14.107181768658542 
392 131 2 16.06219744872859 -4.778527067964557 14.107181768658542 
393 131 1 17.06219744872859 -3.04647626039568 14.107181768658542 
394 132 1 3.1796276534886942 -11.260730148286175 -15.32943334898005 
395 132 2 5.179627653488694 -11.260730148286175 -15.32943334898005 
396 132 1 6.179627653488694 -9.528679340717298 -15.32943334898005 
397 133 1 -17.62772712994216 -20.213260647131577 -14.75289397510964 
398 133 2 -15.62772712994216 -20.213260647131577 -14.75289397510964 
399 133 1 -14.62772712994216 -18.4812098395627 -14.75289397510964 
400 134 1 21.883207442323908 -19.79510753093389 15.761967541430195 
401 134 2 23.883207442323908 -19.79510753093389 15.761967541430195 
402 134 1 24.883207442323908 -18.063056723365012 15.761967541430195 
403 135 1 -22.63654863498664 -3.7725921638472215 -14.897751017862022 
404 135 2 -20.63654863498664 -3.7725921638472215 -14.897751017862022 
405 135 1 -19.63654863498664 -2.0405413562783443 -14.897751017862022 
406 136 1 -10.631224915820788 16.826719280972355 20.81950478812645 
407 136 2 -8.631224915820788 16.826719280972355 20.81950478812645 
408 136 1 -7.631224915820788 18.558770088541234 20.81950478812645 
409 137 1 -25.623954783722763 3.2843581210325254 -13.504410802228422 
410 137 2 -23.623954783722763 3.2843581210325254 -13.504410802228422 
411 137 1 -22.623954783722763 5.016408928601402 -13.504410802228422 
412 138 1 7.553222430147002 12.715819092913016 22.226927161196613 
413 138 2 9.553222430147002 12.715819092913016 22.226927161196613 
414 138 1 10.553222430147002 14.447869900481892 22.226927161196613 
415 139 1 -21.817486852817236 -16.876839362688262 -24.359443188361155 
416 139 2 -19.817486852817236 -16.876839362688262 -24.359443188361155 
417 139 1 -18.817486852817236 -15.144788555119385 -24.359443188361155 
418 140 1 -21.673203403514435 -13.814017956512961 23.175021310947123 
419 140 2 -19.673203403514435 -13.814017956512961 23.175021310947123 
420 140 1 -18.673203403514435 -12.081967148944084 23.175021310947123 
421 141 1 6.096287932553814 9.009589762365437 -20.82237430316679 
422 141 2 8.096287932553814 9.009589762365437 -20.82237430316679 
423 141 1 9.096287932553814 10.741640569934313 -20.82237430316679 
424 142 1 -1.0586578549905568 -7.933201011866455 25.894486646428838 
425 142 2 0.9413421450094432 -7.933201011866455 25.894486646428838 
426 142 1 1.9413421450094432 -6.201150204297578 25.894486646428838 
427 143 1 -13.1520552408276 -19.062763374089094 12.387399419368919 
428 143 2 -11.1520552408276 -19.062763374089094 12.387399419368919 
429 143 1 -10.1520552408276 -17.330712566520216 12.387399419368919 
430 144 1 8.520986981820514 10.640795377864023 2.0347717569502315 
431 144 2 10.520986981820514 10.640795377864023 2.0347717569502315 
432 144 1 11.520986981820514 12.3728461854329 2.0347717569502315 
433 145 1 8.515465933763622 -11.467057856859647 6.583207117251604 
434 145 2 10.515465933763622 -11.467057856859647 6.583207117251604 
435 145 1 11.515465933763622 -9.73500704929077 6.583207117251604 
436 146 1 -25.85154968148295 -22.89959499367925 17.113584038265174 
437 146 2 -23.85154968148295 -22.89959499367925 17.113584038265174 
438 146 1 -22.85154968148295 -21.167544186110373 17.113584038265174 
439 147 1 -11.591145407919143 -14.248482693548597 21.444433737070604 
440 147 2 -9.591145407919143 -14.248482693548597 21.444433737070604 
441 147 1 -8.591145407919143 -12.51643188597972 21.444433737070604 
442 148 1 5.918972631669305 8.811373866835325 11.553840743813062 
443 148 2 7.918972631669305 8.811373866835325 11.553840743813062 
444 148 1 8.918972631669305 10.543424674404202 11.553840743813062 
445 149 1 21.524669714988136 0.7116330252596477 16.94140815542317 
446 149 2 23.524669714988136 0.7116330252596477 16.94140815542317 
447 149 1 24.524669714988136 2.443683832828525 16.94140815542317 
448 150 1 18.424449069449324 -7.415471414789675 -17.82877151495387 
449 150 2 20.424449069449324 -7.415471414789675 -17.82877151495387 
450 150 1 21.424449069449324 -5.683420607220798 -17.82877151495387 
451 151 1 23.36330004443095 26.510200623004806 21.733752916446562 
452 151 2 25.36330004443095 26.510200623004806 21.733752916446562 
453 151 1 26.36330004443095 28.242251430573685 21.733752916446562 
454 152 1 5.701478183367641 -1.7924887393679825 -8.982294446817665 
455 152 2 7.701478183367641 -1.7924887393679825 -8.982294446817665 
456 152 1 8.701478183367641 -0.06043793179910528 -8.982294446817665 
457 153 1 -22.576475762114228 0.9639985789109176 -13.395795009585703 
458 153 2 -20.576475762114228 0.9639985789109176 -13.395795009585703 
459 153 1 -19.576475762114228 2.6960493864797948 -13.395795009585703 
460 154 1 7.220899810098253 25.744164274811027 -8.499637631358286 
461 154 2 9.220899810098253 25.744164274811027 -8.499637631358286 
462 154 1 10.220899810098253 27.476215082379905 -8.499637631358286 
463 155 1 5.5764875251745 -11.85834425018528 12.585897849267425 
464 155 2 7.5764875251745 -11.85834425018528 12.585897849267425 
465 155 1 8.5764875251745 -10.126293442616403 12.585897849267425 
466 156 1 7.877286823206667 -14.544649835528773 11.192195044881473 
467 156 2 9.877286823206667 -14.544649835528773 11.192195044881473 
468 156 1 10.877286823206667 -12.812599027959896 11.192195044881473 
469 157 1 -16.29207325338999 17.63454241158812 13.134268488954746 
470 157 2 -14.29207325338999 17.63454241158812 13.134268488954746 
471 157 1 -13.29207325338999 19.366593219157 13.134268488954746 
472 158 1 21.639074764608026 20.45899661774981 6.115052150486605 
473 158 2 23.639074764608026 20.45899661774981 6.115052150486605 
474 158 1 24.639074764608026 22.19104742531869 6.115052150486605 
475 159 1 -2.423534997398697 3.693339481002212 16.3111409575353 
476 159 2 -0.42353499739869704 3.693339481002212 16.3111409575353 
477 159 1 0.576465002601303 5.425390288571089 16.3111409575353 
478 160 1 -10.809374420454983 8.872887527440042 -4.995133510128891 
479 160 2 -8.809374420454983 8.872887527440042 -4.995133510128891 
480 160 1 -7.809374420454983 10.604938335008919 -4.995133510128891 
481 161 1 24.653654959679912 2.226715610292061 17.285864094936635 
482 161 2 26.653654959679912 2.226715610292061 17.285864094936635 
483 161 1 27.653654959679912 3.958766417860938 17.285864094936635 
484 162 1 7.504573987069449 11.056080230264243 -0.4850852721779013 
485 162 2 9.504573987069449 11.056080230264243 -0.4850852721779013 
486 162 1 10.504573987069449 12.78813103783312 -0.4850852721779013 
487 163 1 15.378843706454383 21.791905671548683 -7.964971800918978 
488 163 2 17.378843706454383 21.791905671548683 -7.964971800918978 
489 163 1 18.378843706454383 23.52395647911756 -7.964971800918978 
490 164 1 3.1038232493599978 -17.101745231219574 26.310626607244423 
491 164 2 5.103823249359998 -17.101745231219574 26.310626607244423 
492 164 1 6.103823249359998 -15.369694423650698 26.310626607244423 
493 165 1 -18.51031584411591 14.505903731781316 25.017628226464296 
494 165 2 -16.51031584411591 14.505903731781316 25.017628226464296 
495 165 1 -15.510315844115912 16.237954539350195 25.017628226464296 
496 166 1 24.45305094207641 23.199659741616756 13.957867541247346 
497 166 2 26.45305094207641 23.199659741616756 13.957867541247346 
498 166 1 27.45305094207641 24.931710549185635 13.957867541247346 
499 167 1 -19.99783933674621 -5.87797647902411 -11.20895910944595 
500 167 2 -17.99783933674621 -5.87797647902411 -11.20895910944595 
501 167 1 -16.99783933674621 -4.145925671455233 -11.20895910944595 
502 168 1 -1.873913097961026 14.393239452763453 -7.069278208396771 
503 168 2 0.1260869020389741 14.393239452763453 -7.069278208396771 
504 168 1 1.126086902038974 16.12529026033233 -7.069278208396771 
505 169 1 3.1443191872489393 26.248182391372026 -14.71061018784001 
506 169 2 5.144319187248939 26.248182391372026 -14.71061018784001 
507 169 1 6.144319187248939 27.980233198940905 -14.71061018784001 
508 170 1 15.307434849886711 22.99919313917431 -8.777846241565971 
509 170 2 17.30743484988671 22.99919313917431 -8.777846241565971 
510 170 1 18.30743484988671 24.731243946743188 -8.777846241565971 
511 171 1 -6.626148106217368 -19.38230566306509 -17.563761985503824 
512 171 2 -4.626148106217368 -19.38230566306509 -17.563761985503824 
513 171 1 -3.626148106217368 -17.65025485549621 -17.563761985503824 
514 172 1 6.218795623706875 -10.86087729851501 15.308722061186572 
515 172 2 8.218795623706875 -10.86087729851501 15.308722061186572 
516 172 1 9.218795623706875 -9.128826490946134 15.308722061186572 
517 173 1 -17.94969978610073 12.311253244064439 -7.485412775377462 
518 173 2 -15.94969978610073 12.311253244064439 -7.485412775377462 
519 173 1 -14.94969978610073 14.043304051633315 -7.485412775377462 
520 174 1 12.615666457306716 15.492582605335329 -21.902654145353797 
521 174 2 14.615666457306716 15.492582605335329 -21.902654145353797 
522 174 1 15.615666457306716 17.224633412904208 -21.902654145353797 
523 175 1 0.010248575362741263 -26.95331136622437 -11.107793963455057 
524 175 2 2.0102485753627413 -26.95331136622437 -11.107793963455057 
525 175 1 3.0102485753627413 -25.22126055865549 -11.107793963455057 
526 176 1 4.742172701410162 6.635936271437089 -15.84699192600418 
527 176 2 6.742172701410162 6.635936271437089 -15.84699192600418 
528 176 1 7.742172701410162 8.367987079005966 -15.84699192600418 
529 177 1 -24.981343993868514 14.884419621360408 17.459516561728194 
530 177 2 -22.981343993868514 14.884419621360408 17.459516561728194 
531 177 1 -21.981343993868514 16.616470428929286 17.459516561728194 
532 178 1 -15.343399869432806 20.133298153789156 25.860566220769705 
533 178 2 -13.343399869432806 20.133298153789156 25.860566220769705 
534 178 1 -12.343399869432806 21.865348961358034 25.860566220769705 
535 179 1 -17.179519145870344 -8.844938946723836 -19.54787686706353 
536 179 2 -15.179519145870344 -8.844938946723836 -19.54787686706353 
537 179 1 -14.179519145870344 -7.112888139154959 -19.54787686706353 
538 180 1 5.7319210859700505 -7.489856499024281 8.863688737043454 
539 180 2 7.7319210859700505 -7.489856499024281 8.863688737043454 
540 180 1 8.73192108597005 -5.757805691455404 8.863688737043454 
541 181 1 16.116165751421725 14.90511416556059 -0.8040470498483074 
542 181 2 18.116165751421725 14.90511416556059 -0.8040470498483074 
543 181 1 19.116165751421725 16.63716497312947 -0.8040470498483074 
544 182 1 -25.607594774766223 -18.53091441513262 -2.804034723085067 
545 182 2 -23.607594774766223 -18.53091441513262 -2.804034723085067 
546 182 1 -22.607594774766223 -16.798863607563742 -2.804034723085067 
547 183 1 -25.976158026190003 17.797782569641477 -8.587575079400647 
548 183 2 -23.976158026190003 17.797782569641477 -8.587575079400647 
549 183 1 -22.976158026190003 19.529833377210355 -8.587575079400647 
550 184 1 -6.64014965353104 24.917688565386356 9.807585270133522 
551 184 2 -4.64014965353104 24.917688565386356 9.807585270133522 
552 184 1 -3.64014965353104 26.649739372955235 9.807585270133522 
553 185 1 -0.1733902956884954 -3.1572374232479987 2.937675361719478 
554 185 2 1.8266097043115046 -3.1572374232479987 2.937675361719478 
555 185 1 2.8266097043115046 -1.4251866156791215 2.937675361719478 
556 186 1 -21.537758216305882 8.425423516521683 24.5696240120176 
557 186 2 -19.537758216305882 8.425423516521683 24.5696240120176 
558 186 1 -18.537758216305882 10.15747432409056 24.5696240120176 
559 187 1 -2.4189123698062005 10.99599789774286 -3.004928957103857 
560 187 2 -0.4189123698062005 10.99599789774286 -3.004928957103857 
561 187 1 0.5810876301937995 12.728048705311737 -3.004928957103857 
562 188 1 14.119317246131459 4.317729884788086 14.316507752806245 
563 188 2 16.11931724613146 4.317729884788086 14.316507752806245 
564 188 1 17.11931724613146 6.049780692356963 14.316507752806245 
565 189 1 -6.277901453770099 24.58993984503485 -24.11430560924518 
566 189 2 -4.277901453770099 24.58993984503485 -24.11430560924518 
567 189 1 -3.277901453770099 26.321990652603727 -24.11430560924518 
568 190 1 4.361036321366619 -5.140428502905351 16.365058727535683 
569 190 2 6.361036321366619 -5.140428502905351 16.365058727535683 
570 190 1 7.361036321366619 -3.408377695336474 16.365058727535683 
571 191 1 10.20279154944729 20.79256946218738 26.003209894256074 
572 191 2 12.20279154944729 20.79256946218738 26.003209894256074 
573 191 1 13.20279154944729 22.52462026975626 26.003209894256074 
574 192 1 -27.752611797943818 24.463169854665992 -23.77385736106604 
575 192 2 -25.752611797943818 24.463169854665992 -23.77385736106604 
576 192 1 -24.752611797943818 26.19522066223487 -23.77385736106604 
577 193 1 -12.27585894605367 6.36939692099584 -16.65054080080794 
578 193 2 -10.27585894605367 6.36939692099584 -16.65054080080794 
579 193 1 -9.27585894605367 8.101447728564716 -16.65054080080794 
580 194 1 6.64081050577353 -19.3330412269749 11.613054107533287 
581 194 2 8.64081050577353 -19.3330412269749 11.613054107533287 
582 194 1 9.64081050577353 -17.60099041940602 11.613054107533287 
583 195 1 -3.251149778121661 -22.945956972159898 -5.744084083831474 
584 195 2 -1.2511497781216612 -22.945956972159898 -5.744084083831474 
585 195 1 -0.25114977812166117 -21.21390616459102 -5.744084083831474 
586 196 1 4.305849246336301 -12.724542387142659 -0.35255841494327456 
587 196 2 6.305849246336301 -12.724542387142659 -0.35255841494327456 
588 196 1 7.305849246336301 -10.992491579573782 -0.35255841494327456 
589 197 1 -1.1936536680430407 23.575715966420105 16.107976679301608 
590 197 2 0.8063463319569593 23.575715966420105 16.107976679301608 
591 197 1 1.8063463319569593 25.307766773988984 16.107976679301608 
592 198 1 -11.890718371460746 -14.384807046196782 -16.39322478919302 
593 198 2 -9.890718371460746 -14.384807046196782 -16.39322478919302 
594 198 1 -8.890718371460746 -12.652756238627905 -16.39322478919302 
595 199 1 -28.010733313683446 -10.799209151013507 3.5472986496841514 
596 199 2 -26.010733313683446 -10.799209151013507 3.5472986496841514 
597 199 1 -25.010733313683446 -9.06715834344463 3.5472986496841514 
598 200 1 4.894889586861446 19.247187924760475 2.990093461145733 
599 200 2 6.894889586861446 19.247187924760475 2.990093461145733 
600 200 1 7.894889586861446 20.979238732329353 2.990093461145733 
601 201 1 -4.0953015068993075 -8.005587255899151 -22.041351637624018 
602 201 2 -2.0953015068993075 -8.005587255899151 -22.041351637624018 
603 201 1 -1.0953015068993075 -6.273536448330274 -22.041351637624018 
604 202 1 13.346325581714979 5.306634961472284 -20.95690678298685 
605 202 2 15.346325581714979 5.306634961472284 -20.95690678298685 
606 202 1 16.34632558171498 7.038685769041161 -20.95690678298685 
607 203 1 -23.179294360567564 13.912264358532155 -0.9862186812244396 
608 203 2 -21.179294360567564 13.912264358532155 -0.9862186812244396 
609 203 1 -20.179294360567564 15.644315166101032 -0.9862186812244396 
610 204 1 8.315013339945253 3.832814755555809 -17.081104842804777 
611 204 2 10.315013339945253 3.832814755555809 -17.081104842804777 
612 204 1 11.315013339945253 5.564865563124686 -17.081104842804777 
613 205 1 -15.205192735357564 -13.187250739570704 18.764391604853955 
614 205 2 -13.205192735357564 -13.187250739570704 18.764391604853955 
615 205 1 -12.205192735357564 -11.455199932001827 18.764391604853955 
616 206 1 -15.222145474812038 -6.470721212471112 -5.139638970555332 
617 206 2 -13.222145474812038 -6.470721212471112 -5.139638970555332 
618 206 1 -12.222145474812038 -4.738670404902235 -5.139638970555332 
619 207 1 -26.757139462241263 7.170143953968179 -23.768320536838356 
620 207 2 -24.757139462241263 7.170143953968179 -23.768320536838356 
621 207 1 -23.757139462241263 8.902194761537055 -23.768320536838356 
622 208 1 8.508778289005171 4.9755284426714255 -18.086463220367854 
623 208 2 10.508778289005171 4.9755284426714255 -18.086463220367854 
624 208 1 11.508778289005171 6.707579250240302 -18.086463220367854 
625 209 1 2.524356658556826 -5.620412815574063 -25.409714840546158 
626 209 2 4.524356658556826 -5.620412815574063 -25.409714840546158 
627 209 1 5.524356658556826 -3.888362008005186 -25.409714840546158 
628 210 1 6.965188630472781 1.9994706628186094 -22.480401719196344 
629 210 2 8.965188630472781 1.9994706628186094 -22.480401719196344 
630 210 1 9.965188630472781 3.7315214703874866 -22.480401719196344 
631 211 1 -4.830118164800769 -26.790968955283333 -24.505890573305603 
632 211 2 -2.830118164800769 -26.790968955283333 -24.505890573305603 
633 211 1 -1.8301181648007692 -25.058918147714454 -24.505890573305603 
634 212 1 5.859925969528511 -2.428627079015147 20.39831835402954 
635 212 2 7.859925969528511 -2.428627079015147 20.39831835402954 
636 212 1 8.859925969528511 -0.6965762714462698 20.39831835402954 
637 213 1 -4.544142006118324 21.918630806741554 25.831242113567555 
638 213 2 -2.5441420061183244 21.918630806741554 25.831242113567555 
639 213 1 -1.5441420061183244 23.650681614310432 25.831242113567555 
640 214 1 23.465676284198857 -3.28302255925594 -8.861784928831696 
641 214 2 25.465676284198857 -3.28302255925594 -8.861784928831696 
642 214 1 26.465676284198857 -1.550971751687063 -8.861784928831696 
643 215 1 -16.337993711768107 -15.922364062734875 -2.588009249598908 
644 215 2 -14.337993711768105 -15.922364062734875 -2.588009249598908 
645 215 1 -13.337993711768105 -14.190313255165998 -2.588009249598908 
646 216 1 -16.26136426108625 -11.200293826287936 10.948439653521127 
647 216 2 -14.261364261086252 -11.200293826287936 10.948439653521127 
648 216 1 -13.261364261086252 -9.46824301871906 10.948439653521127 
649 217 1 -9.97317774002778 23.214228418485035 24.173822520706636 
650 217 2 -7.973177740027779 23.214228418485035 24.173822520706636 
651 217 1 -6.973177740027779 24.946279226053914 24.173822520706636 
652 218 1 12.794609860621215 17.14621028939004 -1.5151672682246087 
653 218 2 14.794609860621215 17.14621028939004 -1.5151672682246087 
654 218 1 15.794609860621215 18.87826109695892 -1.5151672682246087 
655 219 1 24.809164073591226 -6.5622540125583875 -22.73779153326258 
656 219 2 26.809164073591226 -6.5622540125583875 -22.73779153326258 
657 219 1 27.809164073591226 -4.830203204989511 -22.73779153326258 
658 220 1 -5.751450821851456 -21.93481758572848 12.057453592408642 
659 220 2 -3.7514508218514564 -21.93481758572848 12.057453592408642 
660 220 1 -2.7514508218514564 -20.202766778159603 12.057453592408642 
661 221 1 -27.708116543080997 6.565745175500709 5.428373375560163 
662 221 2 -25.708116543080997 6.565745175500709 5.428373375560163 
663 221 1 -24.708116543080997 8.297795983069586 5.428373375560163 
664 222 1 -16.82801888929469 14.475651043621433 6.496179209526154 
665 222 2 -14.828018889294688 14.475651043621433 6.496179209526154 
666 222 1 -13.828018889294688 16.20770185119031 6.496179209526154 
667 223 1 -28.5224881137559 -1.6086383954326173 -18.384153560212184 
668 223 2 -26.5224881137559 -1.6086383954326173 -18.384153560212184 
669 223 1 -25.5224881137559 0.12341241213625986 -18.384153560212184 
670 224 1 -26.685109157184826 -7.600549170889117 3.212393384285754 
671 224 2 -24.685109157184826 -7.600549170889117 3.212393384285754 
672 224 1 -23.685109157184826 -5.86849836332024 3.212393384285754 
673 225 1 -9.095030065303867 2.947365089955472 11.647095631156638 
674 225 2 -7.095030065303867 2.947365089955472 11.647095631156638 
675 225 1 -6.095030065303867 4.679415897524349 11.647095631156638 
676 226 1 -27.891011884082275 -20.389335521478152 11.233551144148109 
677 226 2 -25.891011884082275 -20.389335521478152 11.233551144148109 
678 226 1 -24.891011884082275 -18.657284713909274 11.233551144148109 
679 227 1 24.871450034818075 8.899989035480303 13.5593453539461 
680 227 2 26.871450034818075 8.899989035480303 13.5593453539461 
681 227 1 27.871450034818075 10.63203984304918 13.5593453539461 
682 228 1 -14.27699385088922 26.258269217830012 14.411875378897207 
683 228 2 -12.27699385088922 26.258269217830012 14.411875378897207 
684 228 1 -11.27699385088922 27.99032002539889 14.411875378897207 
685 229 1 10.623695242684633 -15.085834132692181 12.78304446812026 
686 229 2 12.623695242684633 -15.085834132692181 12.78304446812026 
687 229 1 13.623695242684633 -13.353783325123304 12.78304446812026 
688 230 1 -17.769811250454158 23.870485579987836 -18.9325656314818 
689 230 2 -15.769811250454158 23.870485579987836 -18.9325656314818 
690 230 1 -14.769811250454158 25.602536387556714 -18.9325656314818 
691 231 1 7.815997317094222 -14.751423487951808 5.532222342981129 
692 231 2 9.815997317094222 -14.751423487951808 5.532222342981129 
693 231 1 10.815997317094222 -13.019372680382931 5.532222342981129 
694 232 1 -1.25079350994503 3.4007454629603373 22.969238743494373 
695 232 2 0.74920649005497 3.4007454629603373 22.969238743494373 
696 232 1 1.74920649005497 5.132796270529214 22.969238743494373 
697 233 1 -3.0537556351019006 -14.296299239437756 5.066036408785514 
698 233 2 -1.0537556351019006 -14.296299239437756 5.066036408785514 
699 233 1 -0.05375563510190062 -12.56424843186888 5.066036408785514 
700 234 1 21.32876415365731 -23.454656016048524 -16.88638763346073 
701 234 2 23.32876415365731 -23.454656016048524 -16.88638763346073 
702 234 1 24.32876415365731 -21.722605208479646 -16.88638763346073 
703 235 1 -6.599554645470157 -13.190432145702305 -26.757126647656932 
704 235 2 -4.599554645470157 -13.190432145702305 -26.757126647656932 
705 235 1 -3.599554645470157 -11.458381338133428 -26.757126647656932 
706 236 1 13.28588991089078 -15.062406704520976 -26.525360032219087 
707 236 2 15.28588991089078 -15.062406704520976 -26.525360032219087 
708 236 1 16.28588991089078 -13.3303558969521 -26.525360032219087 
709 237 1 20.726000823118767 -12.873833284060648 -3.379573467213291 
710 237 2 22.726000823118767 -12.873833284060648 -3.379573467213291 
711 237 1 23.726000823118767 -11.141782476491771 -3.379573467213291 
712 238 1 13.451100509784162 -24.39064963352974 -7.275864469013939 
713 238 2 15.451100509784162 -24.39064963352974 -7.275864469013939 
714 238 1 16.451100509784162 -22.658598825960862 -7.275864469013939 
715 239 1 9.495863893026709 4.312474305518393 -26.41524453316772 
716 239 2 11.495863893026709 4.312474305518393 -26.41524453316772 
717 239 1 12.495863893026709 6.0445251130872695 -26.41524453316772 
718 240 1 -13.076277505022416 -26.8176622005909 6.837654508160213 
719 240 2 -11.076277505022416 -26.8176622005909 6.837654508160213 
720 240 1 -10.076277505022416 -25.08561139302202 6.837654508160213 
721 241 1 19.780794685713296 20.92685400877871 -23.54255496667294 
722 241 2 21.780794685713296 20.92685400877871 -23.54255496667294 
723 241 1 22.780794685713296 22.65890481634759 -23.54255496667294 
724 242 1 6.920002444039348 4.1897345202180425 -16.165439187431524 
725 242 2 8.920002444039348 4.1897345202180425 -16.165439187431524 
726 242 1 9.920002444039348 5.921785327786919 -16.165439187431524 
727 243 1 -1.7750402114717332 -24.73995710160368 17.481777880807357 
728 243 2 0.2249597885282668 -24.73995710160368 17.481777880807357 
729 243 1 1.2249597885282668 -23.0079062940348 17.481777880807357 
730 244 1 24.011924517532655 23.034478403650176 12.893199925873994 
731 244 2 26.011924517532655 23.034478403650176 12.893199925873994 
732 244 1 27.011924517532655 24.766529211219055 12.893199925873994 
733 245 1 19.51670457781666 -7.086448083397052 -25.836244108363143 
734 245 2 21.51670457781666 -7.086448083397052 -25.836244108363143 
735 245 1 22.51670457781666 -5.354397275828175 -25.836244108363143 
736 246 1 23.770465860482034 10.169359978662072 -14.938203851202761 
737 246 2 25.770465860482034 10.169359978662072 -14.938203851202761 
738 246 1 26.770465860482034 11.901410786230949 -14.938203851202761 
739 247 1 8.228573137813413 9.346868020188467 -14.930558393696842 
740 247 2 10.228573137813413 9.346868020188467 -14.930558393696842 
741 247 1 11.228573137813413 11.078918827757343 -14.930558393696842 
742 248 1 -12.593668746251065 -9.326328990525273 0.283290464643251 
743 248 2 -10.593668746251065 -9.326328990525273 0.283290464643251 
744 248 1 -9.593668746251065 -7.594278182956396 0.283290464643251 
745 249 1 -4.473410466765042 -3.8922888234182373 -1.693230827553176 
746 249 2 -2.473410466765042 -3.8922888234182373 -1.693230827553176 
747 249 1 -1.473410466765042 -2.16023801584936 -1.693230827553176 
748 250 1 9.43488718433499 -15.678592299382478 -16.659260163484685 
749 250 2 11.43488718433499 -15.678592299382478 -16.659260163484685 
750 250 1 12.43488718433499 -13.946541491813601 -16.659260163484685 
751 251 1 20.650490090925892 -17.002168712067256 -25.94040682449267 
752 251 2 22.650490090925892 -17.002168712067256 -25.94040682449267 
753 251 1 23.650490090925892 -15.27011790449838 -25.94040682449267 
754 252 1 -10.289181861262492 -7.713603173896619 25.299756384894984 
755 252 2 -8.289181861262492 -7.713603173896619 25.299756384894984 
756 252 1 -7.289181861262492 -5.981552366327742 25.299756384894984 
757 253 1 -7.861266174522733 17.484388086024232 -7.0068976840058035 
758 253 2 -5.861266174522733 17.484388086024232 -7.0068976840058035 
759 253 1 -4.861266174522733 19.21643889359311 -7.0068976840058035 
760 254 1 -12.103551981446504 4.7700623235031685 20.169496903609087 
761 254 2 -10.103551981446504 4.7700623235031685 20.169496903609087 
762 254 1 -9.103551981446504 6.502113131072045 20.169496903609087 
763 255 1 -9.363915232711225 5.805574337306794 -21.098000671743634 
764 255 2 -7.363915232711225 5.805574337306794 -21.098000671743634 
765 255 1 -6.363915232711225 7.537625144875671 -21.098000671743634 
766 256 1 -20.016508594899964 21.239548195463748 -15.060828439756445 
767 256 2 -18.016508594899964 21.239548195463748 -15.060828439756445 
768 256 1 -17.016508594899964 22.971599003032626 -15.060828439756445 
769 257 1 -26.472123890889048 26.340809449090692 20.542474340792893 
770 257 2 -24.472123890889048 26.340809449090692 20.542474340792893 
771 257 1 -23.472123890889048 28.07286025665957 20.542474340792893 
772 258 1 -7.444205245260825 -10.393107915551735 19.00381644162608 
773 258 2 -5.444205245260825 -10.393107915551735 19.00381644162608 
774 258 1 -4.444205245260825 -8.661057107982858 19.00381644162608 
775 259 1 -26.873270649205985 20.279506404050153 -9.808206784542755 
776 259 2 -24.873270649205985 20.279506404050153 -9.808206784542755 
777 259 1 -23.873270649205985 22.01155721161903 -9.808206784542755 
778 260 1 -2.3050242120893145 4.336527134204022 -25.894286716673545 
779 260 2 -0.3050242120893145 4.336527134204022 -25.894286716673545 
780 260 1 0.6949757879106855 6.068577941772899 -25.894286716673545 
781 261 1 -18.153306563096848 21.341759684478653 -23.704321170839616 
782 261 2 -16.153306563096848 21.341759684478653 -23.704321170839616 
783 261 1 -15.153306563096848 23.07381049204753 -23.704321170839616 
784 262 1 -22.703114292280393 12.953049547294704 13.844645884353113 
785 262 2 -20.703114292280393 12.953049547294704 13.844645884353113 
786 262 1 -19.703114292280393 14.68510035486358 13.844645884353113 
787 263 1 8.351227349268896 -5.666000785951191 -17.600334128218776 
788 263 2 10.351227349268896 -5.666000785951191 -17.600334128218776 
789 263 1 11.351227349268896 -3.9339499783823135 -17.600334128218776 
790 264 1 15.487497776170848 -4.282740414482564 -1.4339220444642393 
791 264 2 17.487497776170848 -4.282740414482564 -1.4339220444642393 
792 264 1 18.487497776170848 -2.550689606913687 -1.4339220444642393 
793 265 1 -9.697965019618639 18.826169567999237 6.758699034188183 
794 265 2 -7.697965019618639 18.826169567999237 6.758699034188183 
795 265 1 -6.697965019618639 20.558220375568116 6.758699034188183 
796 266 1 -12.198174457789356 3.588516512066807 11.318691308819446 
797 266 2 -10.198174457789356 3.588516512066807 11.318691308819446 
798 266 1 -9.198174457789356 5.320567319635684 11.318691308819446 
799 267 1 19.086911053310246 -3.888716568524444 -17.947889305166534 
800 267 2 21.086911053310246 -3.888716568524444 -17.947889305166534 
801 267 1 22.086911053310246 -2.156665760955567 -17.947889305166534 
802 268 1 20.16144679595056 5.640938398274514 -2.5363866073020915 
803 268 2 22.16144679595056 5.640938398274514 -2.5363866073020915 
804 268 1 23.16144679595056 7.372989205843391 -2.5363866073020915 
805 269 1 13.725588442304833 10.054370582503807 3.2770942608825635 
806 269 2 15.725588442304833 10.054370582503807 3.2770942608825635 
807 269 1 16.725588442304833 11.786421390072684 3.2770942608825635 
808 270 1 2.9165367503774995 15.558068581705001 26.738070826530546 
809 270 2 4.9165367503774995 15.558068581705001 26.738070826530546 
810 270 1 5.9165367503774995 17.29011938927388 26.738070826530546 
811 271 1 -10.461180445773195 -17.42738828032705 -15.931335112512514 
812 271 2 -8.461180445773195 -17.42738828032705 -15.931335112512514 
813 271 1 -7.461180445773195 -15.695337472758174 -15.931335112512514 
814 272 1 -28.188422021757464 -25.192902922130333 22.132134540879107 
815 272 2 -26.188422021757464 -25.192902922130333 22.132134540879107 
816 272 1 -25.188422021757464 -23.460852114561455 22.132134540879107 
817 273 1 20.989129167635696 -3.3718971259201993 12.010662267082168 
818 273 2 22.989129167635696 -3.3718971259201993 12.010662267082168 
819 273 1 23.989129167635696 -1.639846318351322 12.010662267082168 
820 274 1 -20.454836782288375 -20.53186989631906 -15.446840593546868 
821 274 2 -18.454836782288375 -20.53186989631906 -15.446840593546868 
822 274 1 -17.454836782288375 -18.79981908875018 -15.446840593546868 
823 275 1 8.550346768603532 -1.646798939960675 24.388593566146895 
824 275 2 10.550346768603532 -1.646798939960675 24.388593566146895 
825 275 1 11.550346768603532 0.08525186760820214 24.388593566146895 
826 276 1 -7.989809509515961 10.577305864460996 26.18329262964358 
827 276 2 -5.989809509515961 10.577305864460996 26.18329262964358 
828 276 1 -4.989809509515961 12.309356672029873 26.18329262964358 
829 277 1 -7.663866622446605 -8.557919081865382 -18.670858334967626 
830 277 2 -5.663866622446605 -8.557919081865382 -18.670858334967626 
831 277 1 -4.663866622446605 -6.825868274296505 -18.670858334967626 
832 278 1 2.6660619347816272 6.436647427785722 1.4434882811777143 
833 278 2 4.666061934781627 6.436647427785722 1.4434882811777143 
834 278 1 5.666061934781627 8.168698235354599 1.4434882811777143 
835 279 1 -18.063131544792256 2.5955254095355436 15.444371437068725 
836 279 2 -16.063131544792256 2.5955254095355436 15.444371437068725 
837 279 1 -15.063131544792256 4.32757621710442 15.444371437068725 
838 280 1 -22.264031502960545 3.9962243087730727 -8.6785294063774 
839 280 2 -20.264031502960545 3.9962243087730727 -8.6785294063774 
840 280 1 -19.264031502960545 5.728275116341949 -8.6785294063774 
841 281 1 -23.54729366839948 13.098441147164515 -14.868721917177938 
842 281 2 -21.54729366839948 13.098441147164515 -14.868721917177938 
843 281 1 -20.54729366839948 14.830491954733391 -14.868721917177938 
844 282 1 -12.193515565536636 2.1257082998031365 9.52001600547247 
845 282 2 -10.193515565536636 2.1257082998031365 9.52001600547247 
846 282 1 -9.193515565536636 3.8577591073720137 9.52001600547247 
847 283 1 19.09180744681197 2.725907456059975 12.412435672729643 
848 283 2 21.09180744681197 2.725907456059975 12.412435672729643 
849 283 1 22.09180744681197 4.457958263628852 12.412435672729643 
850 284 1 9.405812802559524 -21.821472717100477 -7.955962343214004 
851 284 2 11.405812802559524 -21.821472717100477 -7.955962343214004 
852 284 1 12.405812802559524 -20.0894219095316 -7.955962343214004 
853 285 1 18.17363909256231 -22.149183564205146 20.96585167723736 
854 285 2 20.17363909256231 -22.149183564205146 20.96585167723736 
855 285 1 21.17363909256231 -20.417132756636267 20.96585167723736 
856 286 1 -25.972933361627042 12.942529040805319 19.664018460779552 
857 286 2 -23.972933361627042 12.942529040805319 19.664018460779552 
858 286 1 -22.972933361627042 14.674579848374195 19.664018460779552 
859 287 1 -12.192269225485333 26.500443230496884 20.44460993259824 
860 287 2 -10.192269225485333 26.500443230496884 20.44460993259824 
861 287 1 -9.192269225485333 28.232494038065763 20.44460993259824 
862 288 1 8.709830686979558 4.424017748688282 21.098734476713332 
863 288 2 10.709830686979558 4.424017748688282 21.098734476713332 
864 288 1 11.709830686979558 6.156068556257159 21.098734476713332 
865 289 1 3.4054613011775814 17.218406033555546 0.4176234565352033 
866 289 2 5.405461301177581 17.218406033555546 0.4176234565352033 
867 289 1 6.405461301177581 18.950456841124424 0.4176234565352033 
868 290 1 -19.374523923560716 -21.970053498288046 -3.6117264654882675 
869 290 2 -17.374523923560716 -21.970053498288046 -3.6117264654882675 
870 290 1 -16.374523923560716 -20.238002690719167 -3.6117264654882675 
871 291 1 18.168748159056896 -12.664598462439699 -20.363349059010595 
872 291 2 20.168748159056896 -12.664598462439699 -20.363349059010595 
873 291 1 21.168748159056896 -10.932547654870822 -20.363349059010595 
874 292 1 16.904632188767373 22.63278256265305 -10.989577047499825 
875 292 2 18.904632188767373 22.63278256265305 -10.989577047499825 
876 292 1 19.904632188767373 24.364833370221927 -10.989577047499825 
877 293 1 -18.351609855696054 3.4103566858954437 19.174330838692597 
878 293 2 -16.351609855696054 3.4103566858954437 19.174330838692597 
879 293 1 -15.351609855696054 5.1424074934643205 19.174330838692597 
880 294 1 12.761202317661343 -21.85460099584166 -0.6056235990990118 
881 294 2 14.761202317661343 -21.85460099584166 -0.6056235990990118 
882 294 1 15.761202317661343 -20.122550188272783 -0.6056235990990118 
883 295 1 -28.831613515040836 10.402735770389498 17.676885345230914 
884 295 2 -26.831613515040836 10.402735770389498 17.676885345230914 
885 295 1 -25.831613515040836 12.134786577958375 17.676885345230914 
886 296 1 9.63862858730986 3.1069646132154 20.020952221413665 
887 296 2 11.63862858730986 3.1069646132154 20.020952221413665 
888 296 1 12.63862858730986 4.839015420784277 20.020952221413665 
889 297 1 -2.175899172576095 -3.546695462896942 11.594217270083412 
890 297 2 -0.175899172576095 -3.546695462896942 11.594217270083412 
891 297 1 0.824100827423905 -1.8146446553280646 11.594217270083412 
892 298 1 -14.75500322971411 25.085597717909124 9.418893137129778 
893 298 2 -12.75500322971411 25.085597717909124 9.418893137129778 
894 298 1 -11.75500322971411 26.817648525478003 9.418893137129778 
895 299 1 -20.778402756027425 -6.940294262180942 2.808324790465118 
896 299 2 -18.778402756027425 -6.940294262180942 2.808324790465118 
897 299 1 -17.778402756027425 -5.208243454612065 2.808324790465118 
898 300 1 20.01073281416636 19.581901524615716 -26.87605031055592 
899 300 2 22.01073281416636 19.581901524615716 -26.87605031055592 
900 300 1 23.01073281416636 21.313952332184595 -26.87605031055592 
901 301 1 -10.463555088205087 8.53781956183446 6.851506776514626 
902 301 2 -8.463555088205087 8.53781956183446 6.851506776514626 
903 301 1 -7.463555088205087 10.269870369403337 6.851506776514626 
904 302 1 4.122557469978567 15.462721240327433 16.823364745360706 
905 302 2 6.122557469978567 15.462721240327433 16.823364745360706 
906 302 1 7.122557469978567 17.19477204789631 16.823364745360706 
907 303 1 -4.430002819769829 7.7749524659602685 17.20297758137781 
908 303 2 -2.430002819769829 7.7749524659602685 17.20297758137781 
909 303 1 -1.430002819769829 9.507003273529145 17.20297758137781 
910 304 1 5.056941056655482 11.812399197790619 -2.017561967274009 
911 304 2 7.056941056655482 11.812399197790619 -2.017561967274009 
912 304 1 8.056941056655482 13.544450005359495 -2.017561967274009 
913 305 1 21.81715243016538 -22.538004167785886 23.308852137589497 
914 305 2 23.81715243016538 -22.538004167785886 23.308852137589497 
915 305 1 24.81715243016538 -20.805953360217007 23.308852137589497 
916 306 1 -11.660309761725529 21.665805960275158 5.8107167020169825 
917 306 2 -9.660309761725529 21.665805960275158 5.8107167020169825 
918 306 1 -8.660309761725529 23.397856767844036 5.8107167020169825 
919 307 1 7.2507115306705145 -13.862501151388603 -16.37738485961487 
920 307 2 9.250711530670515 -13.862501151388603 -16.37738485961487 
921 307 1 10.250711530670515 -12.130450343819726 -16.37738485961487 
922 308 1 -17.811168156390877 21.690488010106428 21.385857508646062 
923 308 2 -15.811168156390876 21.690488010106428 21.385857508646062 
924 308 1 -14.811168156390876 23.422538817675306 21.385857508646062 
925 309 1 18.27537565860697 12.3994132829135 4.9539453918941305 
926 309 2 20.27537565860697 12.3994132829135 4.9539453918941305 
927 309 1 21.27537565860697 14.131464090482377 4.9539453918941305 
928 310 1 22.53242886828904 6.031232694985839 -9.409527674994834 
929 310 2 24.53242886828904 6.031232694985839 -9.409527674994834 
930 310 1 25.53242886828904 7.7632835025547156 -9.409527674994834 
931 311 1 -18.36584723861824 16.22354958802749 -17.179178867368854 
932 311 2 -16.36584723861824 16.22354958802749 -17.179178867368854 
933 311 1 -15.36584723861824 17.955600395596367 -17.179178867368854 
934 312 1 -9.454047319611568 -2.860605706788931 -6.332839004300151 
935 312 2 -7.454047319611568 -2.860605706788931 -6.332839004300151 
936 312 1 -6.454047319611568 -1.1285548992200538 -6.332839004300151 
937 313 1 -28.759352831639497 -9.904608342589068 15.1330165758621 
938 313 2 -26.759352831639497 -9.904608342589068 15.1330165758621 
939 313 1 -25.759352831639497 -8.172557535020191 15.1330165758621 
940 314 1 -12.363211775139838 -12.106438353985123 22.276336347929885 
941 314 2 -10.363211775139838 -12.106438353985123 22.276336347929885 
942 314 1 -9.363211775139838 -10.374387546416246 22.276336347929885 
943 315 1 -12.332535015222277 -21.863997274498406 7.941701533647674 
944 315 2 -10.332535015222277 -21.863997274498406 7.941701533647674 
945 315 1 -9.332535015222277 -20.131946466929527 7.941701533647674 
946 316 1 -27.47962118402223 -8.08150731025368 -20.74011859440131 
947 316 2 -25.47962118402223 -8.08150731025368 -20.74011859440131 
948 316 1 -24.47962118402223 -6.349456502684804 -20.74011859440131 
949 317 1 -19.384232331211322 -12.067000280334346 20.243547119361338 
950 317 2 -17.384232331211322 -12.067000280334346 20.243547119361338 
951 317 1 -16.384232331211322 -10.33494947276547 20.243547119361338 
952 318 1 -14.014060433044198 26.29199834058703 24.15959009410919 
953 318 2 -12.014060433044198 26.29199834058703 24.15959009410919 
954 318 1 -11.014060433044198 28.024049148155907 24.15959009410919 
955 319 1 -24.44248644592504 21.756079214693003 13.287212939097635 
956 319 2 -22.44248644592504 21.756079214693003 13.287212939097635 
957 319 1 -21.44248644592504 23.48813002226188 13.287212939097635 
958 320 1 -5.5747327770080375 -16.688176366374186 7.61734354276161 
959 320 2 -3.5747327770080375 -16.688176366374186 7.61734354276161 
960 320 1 -2.5747327770080375 -14.95612555880531 7.61734354276161 
961 321 1 -6.844124129128161 -5.189831934229435 19.18395769355287 
962 321 2 -4.844124129128161 -5.189831934229435 19.18395769355287 
963 321 1 -3.8441241291281614 -3.457781126660558 19.18395769355287 
964 322 1 -26.996731275052994 24.846208907880815 -6.137195885168541 
965 322 2 -24.996731275052994 24.846208907880815 -6.137195885168541 
966 322 1 -23.996731275052994 26.578259715449693 -6.137195885168541 
967 323 1 -0.3668167229470747 -11.261195809881414 17.676145281821782 
968 323 2 1.6331832770529253 -11.261195809881414 17.676145281821782 
969 323 1 2.6331832770529253 -9.529145002312537 17.676145281821782 
970 324 1 20.39108202539437 -7.695266701576099 11.875889257233283 
971 324 2 22.39108202539437 -7.695266701576099 11.875889257233283 
972 324 1 23.39108202539437 -5.963215894007222 11.875889257233283 
973 325 1 12.665609367199295 -5.762257390830886 -4.419806899927739 
974 325 2 14.665609367199295 -5.762257390830886 -4.419806899927739 
975 325 1 15.665609367199295 -4.030206583262009 -4.419806899927739 
976 326 1 -14.969131580086827 -15.92359320275576 -17.25558570173591 
977 326 2 -12.969131580086827 -15.92359320275576 -17.25558570173591 
978 326 1 -11.969131580086827 -14.191542395186882 -17.25558570173591 
979 327 1 -26.243463254469837 -21.839417419608388 16.87120400376341 
980 327 2 -24.243463254469837 -21.839417419608388 16.87120400376341 
981 327 1 -23.243463254469837 -20.10736661203951 16.87120400376341 
982 328 1 14.502174989646285 -19.04701733858136 -5.827149174171918 
983 328 2 16.502174989646285 -19.04701733858136 -5.827149174171918 
984 328 1 17.502174989646285 -17.31496653101248 -5.827149174171918 
985 329 1 11.373613950192869 -17.975108433716645 -25.677030191525024 
986 329 2 13.373613950192869 -17.975108433716645 -25.677030191525024 
987 329 1 14.373613950192869 -16.243057626147767 -25.677030191525024 
988 330 1 9.482833460421517 -19.420364521668944 -4.1129687230796925 
989 330 2 11.482833460421517 -19.420364521668944 -4.1129687230796925 
990 330 1 12.482833460421517 -17.688313714100065 -4.1129687230796925 
991 331 1 -27.35830145392516 -9.649217321746061 13.188601037679781 
992 331 2 -25.35830145392516 -9.649217321746061 13.188601037679781 
993 331 1 -24.35830145392516 -7.917166514177184 13.188601037679781 
994 332 1 11.284176544557688 4.514147594210801 -17.795826957955306 
995 332 2 13.284176544557688 4.514147594210801 -17.795826957955306 
996 332 1 14.284176544557688 6.246198401779678 -17.795826957955306 
997 333 1 -16.008985289600176 18.855213316161112 10.070338108325075 
998 333 2 -14.008985289600176 18.855213316161112 10.070338108325075 
999 333 1 -13.008985289600176 20.58726412372999 10.070338108325075 
1000 334 1 -1.3440517642336722 -14.106935425801565 -25.50259281761973 
1001 334 2 0.6559482357663278 -14.106935425801565 -25.50259281761973 
1002 334 1 1.6559482357663278 -12.374884618232688 -25.50259281761973 
1003 335 1 -17.588291356804525 -18.64297674085268 2.178090051855161 
1004 335 2 26.361817636202282 10.567143007105116 -13.249817427822999 
1005 335 1 -10.894094588407054 -8.031990031775493 1.7840919115070868 
1006 336 1 -17.092782892778928 -15.293598120056618 18.785960570465647 
1007 336 2 18.305729572292968 10.419024562871321 -7.344241632285534 
1008 336 1 -6.162325152295946 18.354879149839675 1.3739713004692753 
1009 337 1 15.2313345465234 14.436347263314211 9.108911761426825 
1010 337 2 -6.659963134549226 12.1758257098044 16.810801005381308 
1011 337 1 -14.946597034481282 -6.588090048555927 -23.647864839972996 
1012 338 1 10.732533367412088 14.232305259894972 -11.199539504583718 
1013 338 2 25.49934088214148 -10.940011290573182 11.191125966910484 
1014 338 1 8.495624153649608 16.748286115957775 -21.24598691787711 
1015 339 1 -26.542890519402725 -22.81248568774717 21.184647565745706 
1016 339 2 17.326648505035195 -18.693875002566394 5.193830570676063 
1017 339 1 13.725453272942147 5.433607037529221 -2.859852190513891 
1018 340 1 -9.273559621205386 8.731213595387445 -2.45593780997989 
1019 340 2 15.428696624015124 -12.560475552924322 -4.690929842810441 
1020 340 1 -10.836259659638205 15.47946857413244 3.558788648268191 
1021 341 1 11.230245479878675 -24.664013010334962 25.577221599214973 
1022 341 2 9.439251450420976 -23.21627363143884 10.963551420808258 
1023 341 1 -16.84100314292028 18.3053126679454 5.596415455196443 
1024 342 1 5.850113896831033 10.050114288594166 23.543725031161934 
1025 342 2 15.734892542811288 -10.518426550335224 21.24419596361087 
1026 342 1 -10.303110919269823 12.841361959592092 -7.042316100134361 
1027 343 1 4.4035799022044095 5.213682449561638 -19.953673047416586 
1028 343 2 12.688746884476437 -13.219977421267131 -23.718473173871246 
1029 343 1 -25.42341531519983 -19.706436390530243 -0.17938935952501822 
1030 344 1 -20.539862194412343 -21.78854268194207 -14.913451459390298 
1031 344 2 2.631171251662174 -9.359348855335991 20.730632066495218 
1032 344 1 17.18550217656663 -23.15860792126027 0.8511611062732882 
1033 345 1 -26.97232015901557 17.23108282630247 11.757627867532065 
1034 345 2 -7.065857763222269 12.709001551158615 -24.602906489035284 
1035 345 1 24.362593061378078 -8.423335558948917 -14.222712152506794 
1036 346 1 -23.900134575213873 -10.877406690317876 -25.27738221414307 
1037 346 2 -4.271435611470984 -5.394297811594583 18.931633851680807 
1038 346 1 5.450943308488952 -5.854282718142311 -15.254114721801193 
1039 347 1 11.875015354121302 -7.112353772100725 17.11148175166197 
1040 347 2 -14.928375360743656 9.496140847207798 -22.563645732202207 
1041 347 1 0.6712400694221543 -23.458070195850823 9.127353317401422 
1042 348 1 -7.972617045765126 -0.017384196261822638 2.7366495933960664 
1043 348 2 -6.546561479728908 6.844103650828359 -10.257880466347427 
1044 348 1 2.8195780779994806 -8.178957354033585 -19.307140111310613 
1045 349 1 25.416180947767124 -4.08178996764379 18.41536172154806 
1046 349 2 -22.00612936085207 10.632136662749794 -4.452183656476773 
1047 349 1 14.501019020095043 -26.187758304765964 -19.832749735607994 
1048 350 1 -7.02467180530018 26.949865707193794 -9.385652284002067 
1049 350 2 -4.03927406348102 17.416594218708155 -7.910919211061749 
1050 350 1 -26.690077344223866 15.579474052835323 16.07099857232157 
1051 351 1 -15.570882528309747 -0.4537141174490458 -15.930328861905389 
1052 351 2 -21.9824794403795 -14.8983501188916 14.583159190070376 
1053 351 1 13.172615674396077 21.19043763052607 -22.384995796680407 
1054 352 1 12.63880777852232 4.504747748988336 2.255124382906761 
1055 352 2 6.856119662633255 -3.307669553762352 -1.8779841736544896 
1056 352 1 -17.03991510974941 -2.2481812346230754 -1.4310704466919617 
1057 353 1 10.717313154888316 -0.11560738203288423 -7.039027388086534 
1058 353 2 14.949067861334655 -5.3818297334089635 -3.733709757074763 
1059 353 1 -19.78705800614827 21.160765728935495 22.05400793021039 
1060 354 1 -6.597161990248683 -5.9964488554591 -19.89597810934007 
1061 354 2 12.97281668810377 -5.1119566927522975 -3.041353762260684 
1062 354 1 -11.511750735328096 -13.32718578367205 -0.4936052005399283 
1063 355 1 25.934160257413026 -13.122251756976754 -26.364737809099786 
1064 355 2 25.262908901158887 10.980344252306956 21.394521311578494 
1065 355 1 -9.762148905734943 -13.814670510270869 -0.6719673475449213 
1066 356 1 -26.983900380800346 -20.009773235169472 -7.913003145065133 
1067 356 2 22.512837611828893 -9.368017342183723 -0.43012021492068797 
1068 356 1 16.38572048755585 24.734340100542383 -16.721744583427146 
1069 357 1 -16.733046098788957 13.002751105959383 0.15369017707531896 
1070 357 2 -22.042399463970824 19.787676317962784 13.380039550556631 
1071 357 1 1.2409210449938755 17.009755336441344 -0.16058758112909644 
1072 358 1 -9.743799077544423 24.614249142521224 26.645710899603472 
1073 358 2 -4.269409839894259 -15.894855703316312 3.4334155466411715 
1074 358 1 -6.621306654405277 -2.3615312137918174 -26.04142000385834 
1075 359 1 -17.868704124820262 20.07049776904234 -2.548597514842978 
1076 359 2 23.16272273403669 10.374497386005167 9.330650574357328 
1077 359 1 -7.549703654365548 -15.757740447214175 -6.815149008964493 
1078 360 1 -15.137419481018675 14.664293669211638 -2.391022780676799 
1079 360 2 19.370675264646103 11.478505912255265 -26.180131705363834 
1080 360 1 12.531953103397129 -15.551354433843603 -15.461538303352027 
1081 361 1 7.879071995577284 -21.136045654797833 3.1007455445651715 
1082 361 2 10.713506697971376 20.433695250142726 20.253281399512623 
1083 361 1 18.4195028372936 14.388104050788584 -2.6037672509282146 
1084 362 1 1.459243529850717 4.533751454012812 12.167579732108223 
1085 362 2 -2.33841361081976 -12.479279582379892 -16.197804005653964 
1086 362 1 13.207528174842878 8.478808901280274 -3.7061445113482137 
1087 363 1 18.652012198753397 -17.926889897433536 -2.3490104738959445 
1088 363 2 12.448902783928176 2.363422859591786 -24.48358036658938 
1089 363 1 3.7851281774140304 -7.71592492678354 -21.910013009753733 
1090 364 1 -0.4311133185165339 14.173832462173173 -13.462297672282096 
1091 364 2 11.67538903795333 -2.3332402136608863 -10.769945429364423 
1092 364 1 7.267428299615084 2.0450174534488816 -2.9112858358722455 
1093 365 1 -18.14463246224695 -13.946836084085259 -19.88604051439842 
1094 365 2 17.265154241245078 7.048498042382121 24.188437939522203 
1095 365 1 -25.584311362705364 -3.097758866711299 7.660030354052132 
1096 366 1 -15.109447809956148 5.402208483658512 -17.024565350662392 
1097 366 2 -8.368088073368096 19.650897178106376 -20.146142177154232 
1098 366 1 -7.496202045032252 14.749661377307845 4.551820588611452 
1099 367 1 -15.260068414565794 4.6364896358722625 15.760199543512009 
1100 367 2 -21.14435993097899 -3.872112809243987 0.7135910038468438 
1101 367 1 13.288476420929214 -10.477488838867224 17.398353600420904 
1102 368 1 -18.840468268441672 1.9169185572118508 -1.4589373746826908 
1103 368 2 -8.809409835448772 -18.95907609369225 -23.191186994613883 
1104 368 1 22.624454517352447 -18.399084800671826 11.627175305361938 
1105 369 1 5.221633895357861 -10.887472254565655 -13.087696004795998 
1106 369 2 -14.014372560639499 10.380444603966836 26.92355479872205 
1107 369 1 -5.791146853072956 -1.91265768365367 17.903531544488402 
1108 370 1 -0.0671668944314412 18.537379733755152 -14.669924054480818 
1109 370 2 5.421014101016681 -13.76669190294853 13.003771875462512 
1110 370 1 -11.68346348961337 -5.414426383466708 -14.356229702396424 
1111 371 1 -20.102544513243046 13.658348450450973 14.918152882566687 
1112 371 2 -16.708775253930167 -24.067000561299352 8.811213295208162 
1113 371 1 19.472917713186035 12.41123440526777 -2.3874810950456045 
1114 372 1 -24.309910842776493 -3.242932711337261 2.8692281013805 
1115 372 2 3.5244854136207486 20.972645709794968 17.86929152780253 
1116 372 1 1.271362838737982 -19.107722070423534 7.593390609422542 
1117 373 1 -3.703193832339302 2.722454614471257 -15.914928506586524 
1118 373 2 19.734630198089782 -0.05631986547223988 -19.795357335589188 
1119 373 1 3.8560215102119813 -2.589409493884542 -4.907907002924038 
1120 374 1 -2.63420890764689 -7.657491512591353 22.834169370105037 
1121 374 2 -21.748173682628746 -24.48982355968745 -10.327178124911498 
1122 374 1 -13.443663158402021 -0.7498686825631324 26.677029616241285 
1123 375 1 15.034782904491124 9.188437527709695 -2.330678264121943 
1124 375 2 11.753831182238699 -26.106406940341262 -14.989405236899394 
1125 375 1 -19.47650417186018 -1.8374477741356294 3.6462552244813757 
1126 376 1 -2.5055360919284233 0.5498289313864397 22.341621890431334 
1127 376 2 17.901511983541 -8.972053654267217 7.609394718120079 
1128 376 1 3.226364668374167 21.066057829181062 7.559949237136834 
1129 377 1 23.025191429196695 -12.320343725399367 16.686447027656108 
1130 377 2 9.724838551972454 21.063236209373223 4.956283066379989 
1131 377 1 10.451765671089063 15.889142477929717 -19.68656794962827 
1132 378 1 -4.382882267182659 8.25662386778145 2.9774668381648937 
1133 378 2 9.578866343857747 -18.71572134649294 11.157858277838287 
1134 378 1 20.251504995777253 9.443789828135472 21.59792639237999 
1135 379 1 1.0848037413853362 -10.326537562731168 -10.607842179684333 
1136 379 2 -5.716705670190521 18.82344982069067 -6.11673570631449 
1137 379 1 6.723420246242533 -8.091256350617662 -11.837717624938302 
1138 380 1 -5.149961758031228 11.097576859907491 7.0773158484015966 
1139 380 2 -4.155223480953936 12.964485538071706 15.952478751852532 
1140 380 1 12.440059508344397 -13.67590376185804 -4.700859112889795 
1141 381 1 -13.999785415221888 26.8524596142202 9.24337082095434 
1142 381 2 24.193809305767182 -25.595183978100593 -22.27334565715551 
1143 381 1 -13.644478639873784 24.5092170335229 20.595908533071224 
1144 382 1 -16.954587119846625 17.902992189538125 16.195523840803077 
1145 382 2 21.01186591778825 -19.89403171904285 16.047584134464834 
1146 382 1 25.606155616522038 -19.650819476585376 19.321887511081357 
1147 383 1 -3.4815664495170893 -25.424985378077015 -13.183027739264157 
1148 383 2 9.904983630087642 -10.273584376374771 -2.2153012925683733 
1149 383 1 -26.301834356784514 16.479696819811117 19.70092742946791 
1150 384 1 26.925815725568384 20.839780257308334 16.919147007580584 
1151 384 2 23.22580017509914 15.57078256736397 18.33852693097517 
1152 384 1 -3.6391035152412172 -8.580771203924808 -13.691332143663914 
1153 385 1 -5.8144124079048005 8.74611021347495 24.366036454397957 
1154 385 2 13.976518396382858 20.71206057319855 -10.216293944218538 
1155 385 1 12.075725650495372 -11.296660857676883 -2.5971730810822677 
1156 386 1 -8.896126995622716 18.49187459597642 -18.642803044708344 
1157 386 2 -11.813585415741048 22.677317850946565 -26.896061477543178 
1158 386 1 4.870480688474316 -20.341827985404368 -26.399186952226255 
1159 387 1 17.21473745814543 -14.342222372317519 7.837547843479612 
1160 387 2 17.629620144087426 -18.661997542052458 -17.56932451274844 
1161 387 1 17.677225700535665 -3.9944368631655074 22.584600396140786 
1162 388 1 -9.603643330895537 21.4159010410091 -19.548995825229092 
1163 388 2 -26.033232275085954 15.392317621557517 -0.43742722160657976 
1164 388 1 -11.641453015373452 -5.213714870833389 16.459964895274524 
1165 389 1 -19.560082660619873 10.159619004526647 21.383848250291905 
1166 389 2 21.730228880305276 -0.005859380686636939 -9.005128940884454 
1167 389 1 -15.888977556642248 -12.845022290511025 9.322125169316799 
1168 390 1 -8.950566290705087 -10.459628185783426 -10.148686152769063 
1169 390 2 9.672025676322988 -19.71139114376197 20.594647571470837 
1170 390 1 -0.7614036371203206 24.347079027852338 -10.422907521046508 
1171 391 1 -1.0192058713024075 -19.567881944088313 11.477814557119089 
1172 391 2 22.507729033561375 -20.213970521866628 -15.552943897868868 
1173 391 1 2.7887109615771912 5.712905047575191 -2.0769064527425556 
1174 392 1 -22.025391690553448 20.99374513605833 21.118862020728926 
1175 392 2 -25.802878891436198 -13.920952700436255 3.274613700457053 
1176 392 1 6.524728025567896 1.7398331665885536 -23.57965443515571 
1177 393 1 17.367607061072427 -3.614269525100582 -2.759527297836243 
1178 393 2 -2.761620735290432 -14.518591301593776 3.73062822598731 
1179 393 1 0.4160598945582912 13.398396974951055 1.4041689003201157 
1180 394 1 13.237256526276319 11.667880973231767 -26.340058099741945 
1181 394 2 4.801156707112511 2.2021506819663585 -1.5432096076380795 
1182 394 1 -24.76715756390842 -26.97055124690254 -18.24559457081577 
1183 395 1 17.651220356554546 -25.282118459361893 9.600965266940996 
1184 395 2 22.740612200494418 21.965777758835564 14.459937491053374 
1185 395 1 25.73462340284533 8.635547086575428 -4.686546458111884 
1186 396 1 2.8148012763097405 -5.7772161883102235 -20.893607899573365 
1187 396 2 -2.836577495887571 6.444254554879151 13.504819866418664 
1188 396 1 16.512807038695655 16.567078302729577 -13.373902755058634 
1189 397 1 11.993427433832643 -3.641188584198879 -5.595002264476637 
1190 397 2 -24.042304311818107 26.823735495680523 -5.204689557837039 
1191 397 1 0.04872710338657882 -26.62103848698754 15.015133280245621 
1192 398 1 -1.4274514792003608 3.8980170029506738 14.294573789082733 
1193 398 2 -7.443619326064262 -19.5139562508644 -12.964202978493258 
1194 398 1 -24.704769543422653 8.314118092619154 -8.293038461041931 
1195 399 1 22.532419867678314 2.591297533990975 4.294446840078525 
1196 399 2 7.153623186516732 14.66258496985057 22.780520347027398 
1197 399 1 24.797270470167874 -0.02740550403992259 13.929319928542732 
1198 400 1 -25.515848037810127 24.841939828367373 25.48138953867487 
1199 400 2 9.078854624831479 -21.251415091228427 -17.163054093522263 
1200 400 1 20.80190286699475 -21.74334999063928 -25.961074432917933 
1201 401 1 8.24488406161128 7.548470801214506 -19.94500071807055 
1202 401 2 13.811111081037119 -11.177609464265215 -1.2252619700130083 
1203 401 1 -11.088952038979691 -5.193893941252426 -5.248665796447366 
1204 402 1 -4.37166101425731 14.217354965963082 20.257231035152195 
1205 402 2 9.498484682117144 -22.85791090282966 0.9995518273585269 
1206 402 1 23.83363126564408 -18.15046447480656 -22.99478262378279 
1207 403 1 -20.020399135763167 3.038447110171404 -9.819983222058042 
1208 403 2 13.183896723760427 22.805154244716547 -7.451340591679681 
1209 403 1 14.053248467391448 -10.266344792883146 7.766606667547791 
1210 404 1 15.404984631077966 -5.980728433869416 25.285955994552644 
1211 404 2 20.48776282790171 -21.917629850130666 -1.980772322003343 
1212 404 1 -19.355836780011597 -2.8423796424282806 -11.007729572609602 
1213 405 1 16.45355125444995 -15.919879335962303 -16.503622817180748 
1214 405 2 -23.383416095766524 25.906127032699267 -14.943185490528338 
1215 405 1 8.492672413714082 13.424284041151978 16.16380401171061 
1216 406 1 4.954329239245087 -12.276828811644904 13.540657122948524 
1217 406 2 -18.753156350685515 -7.317079832891892 2.070097630250924 
1218 406 1 -13.674400333141524 -11.218678673782176 18.403532838301935 
1219 407 1 23.176635408557615 20.972304681728964 18.31658189512183 
1220 407 2 14.313593719967628 -21.160853822395012 -21.304836960650743 
1221 407 1 6.367085531001088 18.72316876347338 0.8273351354020093 
1222 408 1 -24.649277236597193 7.102937640049227 -21.098258349128066 
1223 408 2 -13.088291671139695 1.9279096160213989 -1.7395573203808041 
1224 408 1 -2.571621900582514 -10.963016393948838 11.884054309190333 
1225 409 1 -20.92454216381899 -8.98543023626436 -22.741641867371825 
1226 409 2 5.352785246820567 19.904205554157123 -25.410904024065893 
1227 409 1 -19.53305427743699 2.552880285547406 21.8392212897122 
1228 410 1 -0.682384632552882 9.273785971211467 -19.778573417246168 
1229 410 2 19.455554415217705 -14.52079689091697 -16.458391333241206 
1230 410 1 10.511087883922116 2.823135037166484 15.850773658721032 
1231 411 1 21.523540974884902 -1.085494601283866 21.995948582967415 
1232 411 2 17.370852673862245 7.6069272990968955 20.776126999672734 
1233 411 1 5.257286016658043 -17.4082870381992 -0.18235441151598408 
1234 412 1 16.269795838996366 18.31721062383604 -9.175819573462366 
1235 412 2 -0.8958306685442743 -2.9103535860433993 22.320903180112538 
1236 412 1 -3.2843566518411933 20.51822136677479 21.526345028835614 
1237 413 1 -13.264478496531217 15.723388076823461 -2.193293169547868 
1238 413 2 23.632258037339994 -8.796164121623782 12.81752286468138 
1239 413 1 1.375511413690191 -23.48356688793794 -20.530371710663502 
1240 414 1 12.285469215003651 -0.8424305991317809 23.51212435878037 
1241 414 2 -12.907448309301907 20.606651419417872 -10.740953548461206 
1242 414 1 -6.3059710374751035 7.808336176676001 16.649673436977906 
1243 415 1 -0.05152382776233111 -25.931679506542288 24.808425834546 
1244 415 2 5.855296489449081 2.27466250064969 -11.592776211888427 
1245 415 1 -2.3811765155379057 -16.153569923716645 -3.2541816412454168 
1246 416 1 13.159527249242743 18.535407770440592 -21.447035645504766 
1247 416 2 -22.152671357102932 -5.604305940281911 -4.10636944575905 
1248 416 1 3.1456819786496375 15.263362985543331 -1.1974539563435904 
1249 417 1 6.036990357545591 7.950188839567488 -16.45716436361446 
1250 417 2 5.832553678986258 0.5244249908549925 -9.531568408227685 
1251 417 1 -10.121491562905248 17.785091856055217 11.729259803141332 
1252 418 1 24.210217124144037 -18.71589522226138 -14.399714944660907 
1253 418 2 -2.510390282946254 -4.436902418348691 2.7567550319735474 
1254 418 1 24.874957166442464 14.937337146927618 -21.504560804652037 
1255 419 1 -11.126615703669648 7.82831532360867 -24.281764956122213 
1256 419 2 22.46000845966475 26.832208405226375 -19.59736852465359 
1257 419 1 9.170841483029577 -12.505219574426704 26.287660422773072 
1258 420 1 19.5899567172507 -8.060922100088668 6.04129008309652 
1259 420 2 -14.723947314939187 -10.152283912164112 21.272461749390466 
1260 420 1 -5.8670526694855205 -9.428233965403347 13.06510219322356 
1261 421 1 22.916478523856497 22.06942686716694 16.994908384030047 
1262 421 2 -26.034634992113315 -20.67223728273531 19.250294185534734 
1263 421 1 3.2870967664752015 -7.692557223994207 -21.684631426767627 
1264 422 1 -25.437257771230207 20.330913852917973 -1.1308363839108857 
1265 422 2 -1.9326146682761518 14.65959210546999 -10.354945806427214 
1266 422 1 -18.490083566733645 15.895829335419343 -11.879940543493593 
1267 423 1 -8.624338624830635 3.035952949280432 26.273425707581204 
1268 423 2 -25.75547130860893 -7.487832799826826 -9.030572695459906 
1269 423 1 -10.011315410816593 -15.149076099831763 5.91495551683434 
1270 424 1 -0.31820381455561986 -15.206908084164633 17.658412779607225 
1271 424 2 20.04597586986278 20.767174796926504 -19.882839397131388 
1272 424 1 1.577070062812389 10.143568163582344 22.640064099303714 
1273 425 1 -24.988268495853447 14.184775697034453 15.230757319563452 
1274 425 2 3.7316073810430304 13.402359714355526 0.24686613297254567 
1275 425 1 -26.63783739788071 -17.19611139751165 -16.901210029065986 
1276 426 1 13.565168809852864 6.071282885787056 1.4551263088316482 
1277 426 2 -1.630794668548372 -0.8956576772753593 -3.2220885364938283 
1278 426 1 -10.379402420362922 -1.4712391196613694 -16.75488796418665 
1279 427 1 -26.49272709883203 15.502816862704833 14.94579771322681 
1280 427 2 -5.33042783550367 -10.598597431638453 -20.574915659371186 
1281 427 1 -16.94275949316664 2.6152936096063932 8.053251251332568 
1282 428 1 11.20505763164131 -3.9435279996452195 -19.429534089109318 
1283 428 2 -22.871694577634678 -24.92049156396981 -10.637073782727551 
1284 428 1 -15.805022200110397 -22.592189771108462 15.612186973287812 
1285 429 1 17.076157884581384 -13.601331665320226 -7.727512424447582 
1286 429 2 -25.49291365136232 -6.74779562382782 -1.161576794872488 
1287 429 1 -23.133775212777884 5.4593696085005945 -4.594561112906138 
1288 430 1 17.002589269632935 8.410323883448129 25.51566455843939 
1289 430 2 -25.68077075056251 5.270860629853779 -26.005119855142045 
1290 430 1 -10.959100440551065 5.708767001927718 16.894123721475722 
1291 431 1 8.550585897560495 -6.536544857024619 -24.964865776841012 
1292 431 2 14.11538543768338 -7.654923625867099 -18.22215773022419 
1293 431 1 -6.726180080721363 -2.2518844281425885 -26.698327376854785 
1294 432 1 19.519849812787434 -9.066034924682619 18.9798313553634 
1295 432 2 -23.26576280543189 20.91394210244085 17.904753558472244 
1296 432 1 -15.638994274135854 1.7031218225331308 23.577199522429844 
1297 433 1 19.576405947747375 -25.674287302628183 -22.08614838110503 
1298 433 2 -23.66125070526691 -6.219802887621537 -13.175292264642795 
1299 433 1 2.392264012307912 16.528884172850958 -1.604954388307803 
1300 434 1 -14.389022268805256 11.807329733791327 13.48863932800937 
1301 434 2 3.395444198044629 21.370237432314156 -10.405899118257576 
1302 434 1 -13.475288388512427 -18.397747217761363 -25.489360195139238 
1303 435 1 21.538367257105172 -18.89164341211301 -17.731752991746667 
1304 435 2 -5.930057317152318 -14.399428836554117 -8.368706088977852 
1305 435 1 20.8743345347919 15.653248519387574 -16.0416415457401 
1306 436 1 -19.970127885080466 -25.475195287419826 -3.399021462994881 
1307 436 2 16.82005764438729 6.128229526756513 -9.231154259061846 
1308 436 1 3.1995187936879184 15.347200672552617 -24.231854452482487 
1309 437 1 -9.769564631448869 -10.809331547085367 -21.86166879290682 
1310 437 2 16.458899805076868 8.906549562916055 -14.18001610673327 
1311 437 1 -23.511609045598494 -4.327599284569107 15.617886366943985 
1312 438 1 -12.002649048475117 17.45268285083816 10.280110667932135 
1313 438 2 -17.923276866447665 6.624963571976792 -4.340889942155314 
1314 438 1 19.944368692526574 25.809496836320804 -12.510581419953109 
1315 439 1 13.347520098363681 -0.9378891258232827 10.990675110990118 
1316 439 2 -22.99620311125419 16.194057899148383 11.532582012399466 
1317 439 1 8.283027006567693 7.448908330159675 22.284565447516137 
1318 440 1 -7.828849221186324 -10.444684019213014 -1.4814903247819693 
1319 440 2 -8.29515370720653 26.555374712218217 -13.874114134354022 
1320 440 1 -5.749805895965199 11.914015213502921 12.611299889284972 
1321 441 1 1.1519648871816912 -8.176550732936473 26.187716320537312 
1322 441 2 -20.891911517965298 5.605800925121166 12.663784447611889 
1323 441 1 -12.925705286995255 16.221989409799107 -15.64604494293126 
1324 442 1 -2.0136880262576753 -23.4760106391642 14.208500437749464 
1325 442 2 12.375687369559174 5.794129841206278 6.049935168700429 
1326 442 1 -26.55164984753371 2.3721827369493447 -26.600631559521524 
1327 443 1 -1.8887882261450493 -23.569054896202072 2.147610304905516 
1328 443 2 -14.669847543753162 -24.282038728712262 -18.858163795164565 
1329 443 1 23.680835122919838 21.922462624235763 -6.10925965138545 
1330 444 1 24.76188093014779 -5.689791785498215 6.574675494687092 
1331 444 2 -10.550767050515823 3.6250818468532486 -8.405189890292394 
1332 444 1 3.5461837400783267 -3.102815875927732 19.49626632193157 
1333 445 1 13.556181339436357 -9.828293433173066 -7.222690024453705 
1334 445 2 20.301205118323573 13.877541111390507 10.090065568361723 
1335 445 1 26.304994951964296 -21.54352334039513 24.8220737614488 
1336 446 1 12.899271621908873 18.423969069322204 -12.6204620187439 
1337 446 2 -9.79188024195988 16.694376450282313 17.03849450107711 
1338 446 1 6.549586789016409 2.511439001709462 9.212009952164252 
1339 447 1 -22.898740398733395 15.10708758233151 -0.15553227813986936 
1340 447 2 -11.593254899318682 -19.094798615863397 12.466857884617994 
1341 447 1 -21.252207941446017 -20.96779042464346 -0.8121647249700388 
1342 448 1 21.035019133830424 -19.012370332308528 5.590460462212505 
1343 448 2 14.500137507569605 11.623368342359527 26.817340289108053 
1344 448 1 -12.07791845710661 9.032975402152132 8.124971802457182 
1345 449 1 5.566646042199487 -25.693467555385478 22.735778245039604 
1346 449 2 10.911900753894123 14.55844782105509 -25.060914907437045 
1347 449 1 19.720794334084317 -0.68035247477059 -10.732523000612023 
1348 450 1 0.352410480524302 4.286784068727162 -25.5104819314109 
1349 450 2 -10.342692572350074 -0.22922844453192326 -7.024613183760575 
1350 450 1 22.239669979158144 -23.66232318594742 4.096218487051061 
1351 451 1 3.919968607917358 10.585940448048675 3.629618545177351 
1352 451 2 -17.638124814873905 0.48630345131669017 4.829398926399804 
1353 451 1 -9.11765261304155 -24.404330783929858 -5.7367304417639815 
1354 452 1 -23.950690962397253 -12.735566588438193 9.416730806636664 
1355 452 2 19.872381551541622 10.047159692787254 -9.85970513900855 
1356 452 1 7.171154687639607 -0.2614307053233489 8.303159170700887 
1357 453 1 -14.628780924909 18.51081668097209 -4.595232183368758 
1358 453 2 24.005150901332932 -13.987523688420136 3.288019756709428 
1359 453 1 1.6468423069034515 6.242601193692437 21.842913252732245 
1360 454 1 -0.6188837444026021 -6.789434600598163 26.339513837194602 
1361 454 2 2.660043938141399 -14.490078015507743 -7.447255044112072 
1362 454 1 9.57352765761113 -1.1718536675329396 -10.00657541345921 
1363 455 1 23.288984751004868 -7.608113507302853 -4.902452962832626 
1364 455 2 24.650860614942182 21.904691542123345 2.7336161650915614 
1365 455 1 14.41205555602302 5.968283321333097 13.571860430783325 
1366 456 1 6.088875878019174 25.713347452375473 -21.750561466215196 
1367 456 2 -14.04617933799835 -8.909016165504156 -13.050039148798882 
1368 456 1 24.757281581492833 -22.93965414308194 7.531734295623458 
1369 457 1 14.72518878755124 13.729212313024775 20.744499394450095 
1370 457 2 -16.944984659061042 -21.67119047413984 22.344421025625984 
1371 457 1 -1.9917206554710596 0.6514757868353449 -16.74709200481135 
1372 458 1 2.3515253265330465 15.777051606432359 2.0177293883025698 
1373 458 2 -2.7463225813449803 11.785620237514578 -0.36867874637776765 
1374 458 1 8.7565578109743 -11.158996370138212 -12.447359133592583 
1375 459 1 19.00259374025415 -26.041208445975354 3.443351385489123 
1376 459 2 11.405070817813204 26.88154401681313 16.15842749082443 
1377 459 1 18.759146980612016 8.313416589553476 -2.6354455060687982 
1378 460 1 8.90306267147939 3.3361809900477404 16.371826540685497 
1379 460 2 -0.5601711829708584 3.473664290088543 -13.267374624924399 
1380 460 1 12.638642180579325 4.816021728055613 11.432593978563759 
1381 461 1 14.666273638028812 24.663622004280782 21.197161716403095 
1382 461 2 16.57858649652728 13.85222444580436 9.513775822022588 
1383 461 1 -25.440529357962596 -3.142993149665582 0.5975049782801101 
1384 462 1 -16.163856346802767 2.230476399524452 11.1084494551489 
1385 462 2 -13.051693152232366 4.790002912204372 21.734850562538938 
1386 462 1 -17.92616103041663 -13.78814023060337 3.75351085175625 
1387 463 1 -2.7440095325484 13.936153469033854 -9.696788597651313 
1388 463 2 22.96092526993781 -14.654871011811666 3.400003322837872 
1389 463 1 -24.80984873314663 17.225352730074405 16.488049983229608 
1390 464 1 -19.87435361926326 12.550630044189532 12.216820213713085 
1391 464 2 -0.5468868838233298 14.512753069285907 -17.649089110529207 
1392 464 1 22.780038542495888 26.52527160910647 -26.974118347110558 
1393 465 1 -21.568948082190758 1.6711258230961583 7.449614528427425 
1394 465 2 -3.6329209286643938 -6.026787877889259 -14.197279459105543 
1395 465 1 -26.429060802916116 17.83099913791449 -16.72230166761526 
1396 466 1 -18.8961815120119 18.42871898483792 -13.715391397539152 
1397 466 2 12.73983266822286 7.866160597948522 -23.165147164269317 
1398 466 1 -3.2431928146616222 -8.105394449442485 11.619128575447938 
1399 467 1 -2.349227643358468 -15.962445674488478 -20.520871700333572 
1400 467 2 19.20007385172454 1.9091644695954564 22.317177596058436 
1401 467 1 -5.437368201175207 -10.279626247948048 3.728684342054372 
1402 468 1 -14.75902000301037 4.509040225244217 15.727070609962922 
1403 468 2 19.317464331682615 19.064389915153185 16.89534105833338 
1404 468 1 13.088874694362772 13.51159262388817 -20.26581561179473 
1405 469 1 -20.374995239422276 -15.633652423852027 10.063268388512348 
1406 469 2 -20.588378337153294 24.099828796940393 -3.8411433420646865 
1407 469 1 10.82095061109797 -25.07790389502595 21.562157229648278 
1408 470 1 -0.18539876550390488 16.29911023468334 21.972695643117312 
1409 470 2 -18.561591663568876 -6.319851026483921 21.014492902596515 
1410 470 1 2.0725365253483687 4.285678665188417 15.036362639621004 
1411 471 1 11.1516022251163 23.153167957138244 -6.005732097837342 
1412 471 2 25.277266348994715 13.43405931711591 13.694878410949862 
1413 471 1 -11.946120172782244 16.8446197337585 1.9170615907507305 
1414 472 1 -25.162245011154383 -24.59894800323783 -6.397032996587114 
1415 472 2 4.765671006463133 2.22452678947613 -15.678093267034372 
1416 472 1 12.437279856739998 15.209800035998974 2.468887564545156 
1417 473 1 1.0837080573403917 -14.01258799110703 19.063502660015033 
1418 473 2 -16.573438825848115 -7.756899253956426 -8.53983634624447 
1419 473 1 -7.582608695949556 -26.17570797996351 -2.4446066336214543 
1420 474 1 -25.82208436463106 -6.0090972785551315 6.601998061311569 
1421 474 2 -15.368256918005132 -7.278354074570771 -8.971743750142775 
1422 474 1 -15.106421981256432 -2.2754903769738526 0.2853305037023297 
1423 475 1 -19.823964466785092 20.032831005373545 2.135200144869078 
1424 475 2 15.243628947102174 17.360745760050584 18.729222956191634 
1425 475 1 6.6775590030167535 4.405257955239829 26.41785090468344 
1426 476 1 -11.957693461333168 8.90868475078559 -15.651478476683051 
1427 476 2 7.800213284873379 -18.02909375377623 -13.056033011045344 
1428 476 1 23.49264704877418 8.937140180950934 -21.546041058672518 
1429 477 1 23.056391746865913 -9.220162723804489 -16.54822374750522 
1430 477 2 -21.869612527936365 -26.40371577559547 -17.779789673955484 
1431 477 1 18.02421342542715 -19.493381913218972 1.1687789684562873 
1432 478 1 -1.3154751476295239 7.515716062420395 14.547044652042182 
1433 478 2 -5.525186723956921 6.503121931470396 -19.29509918907108 
1434 478 1 15.342585217599627 -6.693160901085896 13.107481039452821 
1435 479 1 16.178098280666752 -21.245824724331296 5.538312509903747 
1436 479 2 20.740263688750744 11.354151735577489 15.145014272994594 
1437 479 1 4.933976334912597 14.315562131661451 -13.471605585995965 
1438 480 1 14.056348199988783 8.185303273236329 3.5884663157722443 
1439 480 2 2.3086717880216803 6.784964041380398 15.435020434843608 
1440 480 1 10.292764511473493 1.0776671356454877 18.85685809898912 
1441 481 1 2.6798978052164593 -8.773697131892032 -24.374211523027295 
1442 481 2 6.4941450209526295 -6.070863762234225 -3.879635507327624 
1443 481 1 -0.9226757800246581 18.41948848575727 26.181759190591748 
1444 482 1 12.7512753607689 -11.237746302004664 21.125149070190616 
1445 482 2 -14.174815882243594 20.26109285598941 -2.2624600428719823 
1446 482 1 5.78403254452342 8.133628079752 24.399300648927692 
1447 483 1 6.492159033605162 2.9030124420209162 -17.11964036663683 
1448 483 2 16.21501082387477 8.545446300872328 25.346980015056808 
1449 483 1 17.24641555181666 12.110503087435639 -1.647374301286927 
1450 484 1 -23.96755106415636 18.293951467122298 -1.2016535650999884 
1451 484 2 -19.111703447514955 3.85738335803833 9.70444032414644 
1452 484 1 11.684438264855274 -25.2959819064434 19.633596256484743 
1453 485 1 -4.685584886629243 -0.15353284773097897 -4.110553127807837 
1454 485 2 -3.6975679186539914 -11.181783067888466 -11.910082634784004 
1455 485 1 -12.857892852121822 23.897888869753544 12.689428485957457 
1456 486 1 -16.355287569840776 13.202223425667292 9.644699237255956 
1457 486 2 22.291105621003155 -11.962928967317728 -4.521079065886461 
1458 486 1 -24.345536210226097 0.7135166653657308 18.335895041290343 
1459 487 1 24.068193523604982 -4.625793462326964 -17.620284707891706 
1460 487 2 19.304912250855025 -20.353047747375957 26.030585551673255 
1461 487 1 0.344066456709065 19.241357588904712 -9.959598434663288 
1462 488 1 19.486161547385606 -0.4526336515885063 18.18051707300576 
1463 488 2 0.9049276524930896 -4.0658044053249505 -22.09806782984613 
1464 488 1 18.22553295224521 9.171934186913965 11.503656464072364 
1465 489 1 -19.979662879471014 17.08756470388358 18.040263425915413 
1466 489 2 1.2714633171742449 26.580628353500977 -21.25493240914288 
1467 489 1 23.488323855103047 -4.209158431819009 -2.8544474604979797 
1468 490 1 -25.889389440925022 -5.474098768417072 -12.84490089250273 
1469 490 2 -22.23878136048043 9.239154168773254 -7.406031343309014 
1470 490 1 2.161846770076643 13.308924671762668 -19.200118129830383 
1471 491 1 11.932349778683658 20.719925769435477 -17.48401007800659 
1472 491 2 -10.760024444445182 -19.64836787845522 -24.02135224741165 
1473 491 1 -20.89197430949396 16.912991602505144 16.576072773238486 
1474 492 1 20.84205471900036 -19.728315328934144 15.904400233303491 
1475 492 2 10.538859279976123 3.3545309485653405 -2.252558335917474 
1476 492 1 14.544097637257877 6.039152178556215 -13.395836507192266 
1477 493 1 -22.226310973050865 -26.066868711955976 0.39555008553998405 
1478 493 2 5.462800311763139 -3.8906009827975296 3.876561527173365 
1479 493 1 21.522338221353237 10.758692494854913 -15.831627978442752 
1480 494 1 -4.7423681318358 -7.499229552110865 6.302305898167084 
1481 494 2 11.03113864608762 5.374190651850498 -8.30285945960081 
1482 494 1 -7.980546491524731 16.996421738132568 11.244176123527225 
1483 495 1 18.083626604904012 -7.052120589217147 -10.76196762761137 
1484 495 2 26.841878980956984 8.135939124900887 4.7478402006773095 
1485 495 1 -5.516462482472221 -6.557142966984269 -25.575028029592332 
1486 496 1 16.131062735549747 9.899372845625479 -20.535105299729135 
1487 496 2 -13.938724013727768 1.481980671808273 -10.578822547671745 
1488 496 1 -6.593352502393454 -14.504827618717801 17.590866693577908 
1489 497 1 24.659374409234267 -18.419298318642277 -26.16348457792338 
1490 497 2 -16.12836868599659 15.640760248667178 -24.75743048681478 
1491 497 1 -10.256129713586716 3.0489271505770716 15.079724981480211 
1492 498 1 -8.590425179256826 -21.962051805927715 -18.520682663680066 
1493 498 2 22.597724826803464 23.3734405675944 5.210438229715521 
1494 498 1 -14.736347778972634 18.88420378426018 -14.653695306937031 
1495 499 1 25.67702415621676 -2.5314048619933835 -7.011626204684397 
1496 499 2 -19.257142955794453 -7.62384274330973 15.163904481493077 
1497 499 1 -19.84139080255604 -14.414213844961397 -10.05508172876499 
1498 500 1 -6.207453689563572 -17.926688502542206 -10.41432417652991 
1499 500 2 -21.898286277271726 -22.296039067369563 -13.243858344013983 
1500 500 1 -2.20492610215285 -2.7117424141721003 0.6349846884198591 
1501 501 1 24.042173787071015 -9.09311849903763 12.441481437285105 
1502 501 2 -0.7412084026711874 26.20467469271118 -3.9428885973129013 
1503 501 1 17.587744012951724 -14.516854914649269 11.219482686688792 
1504 502 1 25.642963349411204 -5.856049354891727 -19.15008885135577 
1505 502 2 1.328769755803588 20.972656998465283 25.023950051818858 
1506 502 1 15.898386833372186 25.8836082624967 -6.095465409616779 
1507 503 1 18.052880169107297 23.15982952595558 -6.131722296110674 
1508 503 2 -13.862946375565357 -4.825563704860638 24.654919540839977 
1509 503 1 -3.871328802841685 8.340082757418024 -1.754750578959836 
1510 504 1 2.277462513259703 2.6930992923953845 8.249668687964444 
1511 504 2 13.953353060905918 0.794018125649405 -12.253735319890644 
1512 504 1 23.866154352662328 12.991711119591777 23.90308755383571 
1513 505 1 3.3591480337404107 23.907485204378936 -20.31820267544902 
1514 505 2 -18.356973599296673 -8.790104541594353 18.440582770919995 
1515 505 1 13.15507299809881 -26.743801826103706 -11.560796218768187 
1516 506 1 -17.895129243926608 -9.098409512646999 16.874106641323507 
1517 506 2 9.87559674524136 -8.316864070730816 9.128537416652541 
1518 506 1 -4.433204547142147 -20.477917566011083 4.608899407747657 
1519 507 1 -25.387076194630076 6.031598978521814 -19.246244394943453 
1520 507 2 26.444998163687295 16.822934144582348 17.407338815463298 
1521 507 1 -0.9607276352778555 13.481624795811861 15.076382579821072 
1522 508 1 -1.3166478982309222 -3.9292120592419977 23.245710153675866 
1523 508 2 19.47885365789938 -5.14555582867807 20.36047693827156 
1524 508 1 15.724871649939693 -3.159339824330072 -10.511975991448452 
1525 509 1 -19.473342871990823 -26.44840448331047 -17.62779637613115 
1526 509 2 -9.047253470983083 3.9631352917778457 26.259188029825445 
1527 509 1 -20.880333218209966 -19.458966064785294 22.097900315067847 
1528 510 1 -24.722452839606884 -14.258842772083462 20.960695246577053 
1529 510 2 -6.4660833443806 -5.39987311376359 -21.6314666429914 
1530 510 1 3.0505695756120055 8.940044466313402 -15.306625889550123 
1531 511 1 -20.89222867895613 -2.52762873403546 11.182425301030783 
1532 511 2 -17.626396559411198 5.588512912878272 -17.250329653434793 
1533 511 1 -0.643225046752125 -6.239904012577643 -12.996118459851356 
1534 512 1 11.856189683300833 3.676218192763695 -26.890802558234594 
1535 512 2 -2.4753604541215886 -8.720669674005748 -18.87794669118328 
1536 512 1 16.720646466298383 20.78323415986919 -8.913051156404062 
1537 513 1 15.226097005545256 7.609098529475823 -14.425781939241405 
1538 513 2 -23.548076311077285 6.630455987647487 -16.494632805870317 
1539 513 1 6.91880242685631 7.929123501278994 22.19142355560534 
1540 514 1 -15.479613623337004 -2.7825070507284764 4.250807220609488 
1541 514 2 -22.531352351612313 -3.5335435831989415 16.72119601854302 
1542 514 1 23.391059664006328 15.13281758073979 22.952440203292547 
1543 515 1 -17.160357124254055 6.165210591375796 3.1132447893851563 
1544 515 2 -22.12121024764611 9.211376743210423 -26.39786605043173 
1545 515 1 17.13438307218459 11.461859432919155 -8.284136646579874 
1546 516 1 -10.525231977964765 25.994292844554266 -23.714190394962813 
1547 516 2 23.829345884554556 0.13084934921580782 3.373332766216464 
1548 516 1 -1.8347154531737004 -17.575456542851384 -4.916831070161226 
1549 517 1 26.592679606284733 2.1938180274787307 -26.264580642752197 
1550 517 2 -13.122097630865387 0.5996175337082867 23.317622731270404 
1551 517 1 -18.120219602703507 -2.317870936711863 -7.951233733085289 
1552 518 1 -16.183433253665783 8.313599689987427 -2.7054534197655897 
1553 518 2 15.342756224588634 -20.428771081764246 -1.7651828356810917 
1554 518 1 -1.2842189960017762 7.072571835107716 7.281916816141198 
1555 519 1 -7.404238426620385 -23.676756875795427 -2.5689859719206822 
1556 519 2 12.115897307457011 6.874864931496539 -0.39641804275263226 
1557 519 1 11.816795433595068 -20.984137372695113 15.921868025589852 
1558 520 1 13.42761519197984 0.6874827068850031 23.080769056892265 
1559 520 2 23.283008155497285 19.299217543882804 9.512485700841331 
1560 520 1 -25.152522670958035 -11.680946471803775 -23.747860146516643 
1561 521 1 -7.067176655509577 7.714427199369133 26.206318140832515 
1562 521 2 13.599305398443462 -17.174776828430886 -20.668038170207787 
1563 521 1 16.43309544424062 0.13549371759201634 -8.746867167193479 
1564 522 1 -15.831510278729578 0.1717670470475845 -13.29655615938907 
1565 522 2 23.859941214621024 -7.41030497756104 -12.551678968120608 
1566 522 1 26.889036199880422 20.927541011772306 21.119394584667326 
1567 523 1 0.5561839142113065 -13.09203538883071 -8.845078574189518 
1568 523 2 7.2368026086054655 14.842979709207434 7.511427356538029 
1569 523 1 9.904739692081904 -0.5328154109128178 6.481234373937674 
1570 524 1 -22.87539276568623 -25.955277771678546 -10.481100119404854 
1571 524 2 -11.31073094773654 -15.861352036503678 10.288613572956713 
1572 524 1 -16.171985153866437 -8.722754549508394 25.354266818660626 
1573 525 1 -22.369518765413776 -15.618988170452855 13.061156813186074 
1574 525 2 20.545602363006402 18.808503857490997 -1.7009944887370594 
1575 525 1 17.9379673826595 -5.8114457375658795 15.780050917536002 
1576 526 1 -10.160221324821318 12.420077644432084 11.30201844371986 
1577 526 2 20.54289391892336 -25.578241537117055 10.566666252539441 
1578 526 1 1.2774155897531045 5.4834340129592505 -16.008718325801123 
1579 527 1 5.77871063857733 -15.288721415732477 1.7025038494527607 
1580 527 2 -24.958669234707678 18.550485605340675 17.682780477358875 
1581 527 1 13.373324988661025 -3.0167437397860546 -21.99340857750881 
1582 528 1 -4.543075765634093 -10.879804595733532 2.9039924366069414 
1583 528 2 -12.062408456725676 -5.219338585463316 -7.472447004517608 
1584 528 1 -17.077041309138266 25.20757018782018 3.873090763775629 
1585 529 1 4.161078680240426 12.590280267948543 -7.910488124713108 
1586 529 2 -1.6928835221454293 26.32501334731205 3.738496631926118 
1587 529 1 -13.5089605080294 24.90372574558144 22.35943894310619 
1588 530 1 -2.626446487776935 21.578487044574835 -16.17361204025589 
1589 530 2 -25.643499507855317 13.874059343071536 15.388601321575038 
1590 530 1 8.787440735437812 5.619809201038386 -22.121920759629898 
1591 531 1 -2.418547033856168 -21.314012070811778 -24.95044508099981 
1592 531 2 18.00274946679292 -12.924760561880145 -22.19087538361545 
1593 531 1 2.5516726108279713 25.787034935120566 10.515866507056792 
1594 532 1 7.840748765043507 15.176071236147045 7.6915832300267155 
1595 532 2 -12.20610509999604 14.688899743952597 14.094603035730124 
1596 532 1 26.223615023070657 -10.345637643109907 -8.232329693657089 
1597 533 1 22.319755287406217 -26.03635638766771 -15.444204495006947 
1598 533 2 -26.950271837423628 3.251633744747128 -5.728965418711027 
1599 533 1 -10.277484194239662 2.775281508650945 23.62530318563723 
1600 534 1 3.9451588390171715 -0.4697978216102605 12.839328839363517 
1601 534 2 23.501442699380696 22.434035892970392 22.961489260430447 
1602 534 1 -26.104245755182912 2.5918147464017025 20.453577318487298 
1603 535 1 1.0414073966964885 -3.364624696311459 13.641225243656407 
1604 535 2 3.943845239145766 21.37016255181497 18.542677599627716 
1605 535 1 22.158374267677786 -0.4059005902169588 -13.861929796516545 
1606 536 1 11.643576399613472 21.692843360953432 -0.28718884367348707 
1607 536 2 14.649571777609324 -17.30429592191507 21.954665056233324 
1608 536 1 -17.1462590655779 21.376710806495367 1.9857291731177256 
1609 537 1 4.219906076191332 23.715334272229924 -0.25795832020587994 
1610 537 2 15.572395280083626 -2.627881996984282 -9.585258733213188 
1611 537 1 14.082102544673205 -6.238078352586431 -0.004018558580909826 
1612 538 1 -9.142334566290327 26.289599191394046 17.021324079882163 
1613 538 2 21.151873760020713 17.371128539801816 -13.841719538716882 
1614 538 1 -6.03248870498777 12.026108560325142 21.824307921678844 
1615 539 1 23.39157260595276 -6.9069282548878626 24.50018255999788 
1616 539 2 15.470685413787258 17.339378849911327 20.232407239269378 
1617 539 1 -22.049310433748495 -5.526730849982709 0.21011525097158312 
1618 540 1 -19.52198168370603 17.527130608637655 1.4526506237581103 
1619 540 2 -8.224533300887959 -9.563707466381299 -7.505299007232672 
1620 540 1 9.779406372999148 1.928607674120812 13.888429313830287 
1621 541 1 -24.94331818318264 -18.36448056010847 -17.53972108774957 
1622 541 2 14.714749678095188 16.348237587569386 -9.94988424888325 
1623 541 1 -24.625031589261287 8.968829268116139 -16.67433019890028 
1624 542 1 8.090274611079508 13.01898798615752 22.61497157000327 
1625 542 2 18.27992724591705 18.140615050976713 -15.355542595157448 
1626 542 1 7.987462917594868 -24.30051508431261 8.720426472095504 
1627 543 1 -18.433848890020858 -24.661847505458642 8.203711760327153 
1628 543 2 -8.276321457844443 2.422627184281076 -12.498050840276138 
1629 543 1 0.811903341119308 -2.8093392299041753 20.549741664498363 
1630 544 1 24.384663248085502 7.4122748276071135 3.7786178521126814 
1631 544 2 -25.375145536984952 20.93190166401891 10.339602826071769 
1632 544 1 -18.574214148884728 -0.4050572539001358 -5.388541149599444 
1633 545 1 16.827390150714194 -16.83320115076579 -18.313263917864848 
1634 545 2 -24.177207288357124 18.073852954935155 -26.097219082667152 
1635 545 1 -23.468730325746737 25.751557985713077 16.768796484193857 
1636 546 1 -16.14502367952723 -16.294983241562484 10.073339673021842 
1637 546 2 -21.848673754382116 9.366073726054701 2.428954147148737 
1638 546 1 8.285198863405078 21.027153512780792 -11.600622040307995 
1639 547 1 -12.953259613965859 6.9151714049322734 -7.473781444395232 
1640 547 2 -25.136310414193897 -26.669992373955044 -12.565569758160764 
1641 547 1 13.881127819845055 9.3792639852363 16.626994422654754 
1642 548 1 -2.866144602214895 9.727371424436406 -8.750261359289393 
1643 548 2 12.014539068944273 15.508363101248435 2.1910609706420487 
1644 548 1 22.37524193346416 11.724132756967776 3.439191266172532 
1645 549 1 -16.961362893029808 15.394987872862337 17.747671640186418 
1646 549 2 22.247873340382462 -17.661219649644046 5.5642157166461175 
1647 549 1 4.526357466769401 12.573531212729478 -20.30701724851762 
1648 550 1 -8.479178361423742 -12.495520159004277 -20.612990502550634 
1649 550 2 16.669026283604012 11.336957786221546 16.760080947913266 
1650 550 1 -15.892270164088911 16.597797644249972 -6.391367563940051 
1651 551 1 -6.411691395059883 -18.977031136546323 3.691196776560826 
1652 551 2 20.201705502885574 10.655368982729478 -5.961820760252884 
1653 551 1 20.010716952484096 -10.65490041894801 4.252456120817548 
1654 552 1 -6.073576503680506 4.099781296734047 -5.620026326107592 
1655 552 2 16.686581592850388 1.6892886961173197 -19.724816294392205 
1656 552 1 -22.716096910235287 -4.466969243985311 16.893704725387472 
1657 553 1 20.80542461983444 18.408127346616524 -22.29705118191466 
1658 553 2 20.29327946307341 -24.048842262032345 -23.00586482457954 
1659 553 1 -2.656568560038746 -18.39600238003029 -23.97954985347449 
1660 554 1 9.197963723726566 25.557939177324016 13.254875101351608 
1661 554 2 -15.788812706123313 25.373469804933805 16.213923580023575 
1662 554 1 15.696128598949336 25.53156971308254 0.08511552615994233 
1663 555 1 -13.552258629356189 -10.44679305377974 26.53414650154449 
1664 555 2 16.40675383433031 12.696498712656698 12.893738068437223 
1665 555 1 3.491731290665836 3.2444436124398806 24.25004588505098 
1666 556 1 -8.686950846698366 -1.7877163937584442 -1.4164816557560158 
1667 556 2 18.641766694182436 -8.729502382817895 -3.300426940840385 
1668 556 1 25.480105251609807 -21.904986589182016 10.521876437761648 
1669 557 1 -23.923092423613628 4.899697567183594 7.41161057601569 
1670 557 2 -21.25266801034079 -4.602499752676845 2.475614962837817 
1671 557 1 5.518236437657976 -23.10524016433043 -0.11660657563895782 
1672 558 1 24.651974944765065 6.465236260214638 6.694166434326853 
1673 558 2 18.58999113219626 -23.491556458484844 -13.8151222239528 
1674 558 1 15.792966200270854 18.474987920671005 -8.053746247519118 
1675 559 1 -22.58644060170361 -13.396948630951243 -11.694694413247518 
1676 559 2 -16.658892403519022 -11.934617921698685 -9.263983864181057 
1677 559 1 11.223054700409534 12.048024505483575 7.34409828560905 
1678 560 1 23.731941272704844 3.1111229301706373 -21.06484792993498 
1679 560 2 3.113964091180428 -14.918698679920372 15.097981899499374 
1680 560 1 22.899450599012702 -15.138162938557677 -24.429766448634098 
1681 561 1 -15.332618010390355 4.392725245542142 -14.139417133387855 
1682 561 2 -22.48936133782442 7.215548491586297 17.147907366792175 
1683 561 1 23.61930613626631 -10.191568476446996 11.736892615630637 
1684 562 1 3.8928420186104233 -22.83889716005614 -14.345090838011457 
1685 562 2 -24.689298021719218 -25.123229095292185 -18.038859986699855 
1686 562 1 15.352711044271267 -0.980741968192703 -14.41886927546117 
1687 563 1 -8.474935083820888 -5.2577641708380085 24.169030022975207 
1688 563 2 -6.931190179157653 -2.462803207195094 -3.690991759257493 
1689 563 1 8.526563168791768 10.677414786054165 21.286998000200825 
1690 564 1 19.86470808812699 2.1348971618630124 21.061287339722234 
1691 564 2 -21.898899283448458 -25.00043602314298 -21.354885600792727 
1692 564 1 -23.612059936465805 -21.459799600969298 -25.241176195090052 
1693 565 1 24.40668169297092 17.072802626254585 21.690843989411384 
1694 565 2 -19.53230994167854 17.14099498368317 0.4034849837644394 
1695 565 1 10.189811179343998 14.73098554464822 -8.521023580333864 
1696 566 1 -4.246727769594365 -7.670390091881302 15.863321254457496 
1697 566 2 -9.571299547234574 -5.795376966538051 10.388128305723598 
1698 566 1 1.3898063071284454 6.549048095019614 15.459889655340682 
1699 567 1 17.44236650034231 14.915530736764474 -26.820593884077972 
1700 567 2 14.910223596139325 -25.229126573544733 -11.653297209813324 
1701 567 1 -22.774881036966057 -6.595995688693407 -9.356800336691212 
1702 568 1 -16.113467568323635 6.5936411687517875 5.985562641922833 
1703 568 2 -22.266258483309407 22.010879432976452 -19.37603587988823 
1704 568 1 0.7460477628108109 -7.818524268039258 -7.4896347089580715 
1705 569 1 8.21440157225036 -7.289450107007806 1.0393886480109913 
1706 569 2 -17.44884499422264 7.022244664373844 7.7654968701434655 
1707 569 1 -13.39733498713588 -8.700157717255902 16.610240474518427 
1708 570 1 -16.07078839882701 -8.84352999926907 7.315816365572729 
1709 570 2 2.647116455095741 -17.510497999656767 20.08166267839013 
1710 570 1 -6.155372761174036 5.9396015582566974 20.696269269099155 
1711 571 1 15.489629191455215 18.163522356208638 -9.931412363074603 
1712 571 2 -13.555723065436878 13.180627751722085 5.335689343707834 
1713 571 1 17.693786517558337 -5.375177110028254 3.243054974180339 
1714 572 1 -25.22160359030842 2.9181585472879945 -16.21914392218704 
1715 572 2 -14.624713359213935 -4.580854900861727 19.6283878242702 
1716 572 1 -16.793675471896425 10.884983440608536 -17.918345495334076 
1717 573 1 7.005878154333757 -5.917199239384548 -8.255466841556395 
1718 573 2 -25.00634562736922 -22.86325665561253 12.907282711202555 
1719 573 1 -20.40354097929633 10.481668910320565 -25.578005609708864 
1720 574 1 -26.702157822092282 -17.978915731430728 -15.711695778111688 
1721 574 2 20.095442285753286 -0.1330815449463465 23.885538560629115 
1722 574 1 17.34257499067224 8.3247344330371 0.1593285426693818 
1723 575 1 11.478102923246283 -1.8353348363191984 -22.99604241974198 
1724 575 2 19.800541690284312 6.550707057202658 4.064501756943386 
1725 575 1 -8.969473783228032 -24.988193053461767 11.945958708251503 
1726 576 1 15.488524046374998 -26.93264892228935 -2.358370898434469 
1727 576 2 10.341170974887127 -4.352022428177179 15.235212366162031 
1728 576 1 24.342117958295937 15.508149201459574 7.374660363023317 
1729 577 1 -20.77479128632516 19.64327793394581 21.68372172895365 
1730 577 2 25.175104254263886 19.792977090598754 -4.747352544124464 
1731 577 1 17.27378728426359 4.730666811974416 -1.2970611882128225 
1732 578 1 24.40413443768741 -11.674840510710993 23.311840627261226 
1733 578 2 -14.397478630513273 -12.240204047190762 17.683242555447677 
1734 578 1 12.145617986176731 -13.653872253435505 19.264153653034597 
1735 579 1 -1.859266046829724 -4.452663913805022 16.28250240753605 
1736 579 2 8.66500764712314 -14.732587507999781 9.761820860047038 
1737 579 1 -19.684023932271156 4.406946880530796 -24.115736742458893 
1738 580 1 -15.470310258162906 -3.1651627876579376 -26.476875504833306 
1739 580 2 -1.6921118342520032 -4.198270369832059 -18.362583274333254 
1740 580 1 -24.87730956820884 -7.551430391584589 -10.77836437367424 
1741 581 1 -21.780338260644072 -7.952290260553006 -5.9805164248613 
1742 581 2 6.376385724376085 -11.892603365275695 16.20788609413794 
1743 581 1 -9.18277876285891 23.863465077894766 -4.631195733738746 
1744 582 1 -7.362645412212046 18.821273845402317 11.339505391299795 
1745 582 2 15.951147697801368 -16.01659903437398 7.019856488288269 
1746 582 1 -12.245587560830728 24.144189631733127 11.181854825556897 
1747 583 1 -15.814720402884525 9.681727096722085 -14.768108659276457 
1748 583 2 -12.706042744740097 -21.70296741680891 3.874184743159468 
1749 583 1 6.440793883328041 -10.281453141131273 5.643501327896139 
1750 584 1 -3.531298967099559 -2.8270007751368524 22.470588965588867 
1751 584 2 23.57655812383166 -7.751766834547649 6.005486414334634 
1752 584 1 -21.195876876322387 -5.776046063912489 -2.957953347103107 
1753 585 1 -12.24121846630692 -25.400057110613595 -18.983220794669215 
1754 585 2 20.690057832694265 26.188050671363385 4.041742812290927 
1755 585 1 24.837264464633385 -22.099115331552962 5.219878027778627 
1756 586 1 7.856933496950667 -16.18658447765801 -6.736308943955272 
1757 586 2 17.160032551344493 -19.559504250124462 24.450130564527612 
1758 586 1 -10.9563707411702 -21.004860820067524 -14.994999604227333 
1759 587 1 -7.973130282555836 26.223718099337752 -12.485665586135987 
1760 587 2 18.715829930355696 3.8962322297227416 -9.18929116903412 
1761 587 1 15.955958534567472 18.861269110273355 -20.514570851028274 
1762 588 1 25.97892427365695 23.197037090487427 -2.8009485402649013 
1763 588 2 12.849168553189088 7.995865514625329 -13.50822348572557 
1764 588 1 -13.117974722096168 -23.871041933627996 17.934920363724693 
1765 589 1 14.73591223745914 2.5031067427684484 2.34193645024758 
1766 589 2 1.0029093426015159 -26.88333793945009 4.589428304871468 
1767 589 1 -6.026556113761917 -18.50983509588615 14.505961376237316 
1768 590 1 -10.519573846521741 -14.11862579235856 -25.97941491384546 
1769 590 2 16.50155120843342 26.437464294833767 1.6648738477057208 
1770 590 1 -21.74164132003041 11.213905641243237 23.543318551468047 
1771 591 1 17.92384148107633 1.954378102774264 13.23690712020096 
1772 591 2 -20.431928556687996 -22.06342367613032 -23.43552927679591 
1773 591 1 24.925464651770078 5.576569523524924 0.7664718256814389 
1774 592 1 -20.522589017637568 8.537255855914069 -23.578450961821574 
1775 592 2 17.03133743266539 -4.762449100767931 -14.35695828050293 
1776 592 1 -17.745084291871972 4.490122063810048 -18.076474330807894 
1777 593 1 -21.34061239726537 20.25562535313864 -9.679425348650138 
1778 593 2 -18.751612113462787 -4.103922037142354 -8.977896243722054 
1779 593 1 -12.663876376589457 18.323488821954044 -1.5749279206764868 
1780 594 1 16.12160968322339 2.1217371076065277 5.438126445207317 
1781 594 2 -10.078991259260775 -8.140647840843865 18.38894233178312 
1782 594 1 3.1333748630839438 -0.6169728863697408 -14.471035485960059 
1783 595 1 12.980497563170331 14.874792715351553 25.01929129538273 
1784 595 2 -9.163216352651066 5.734853024144364 -9.744628115389308 
1785 595 1 -4.413043083611061 22.54941216833256 -17.058561735268512 
1786 596 1 -17.453065852069606 7.313652966601275 -21.829526205740333 
1787 596 2 -11.266081068574609 -4.988357058093438 -14.800217431634415 
1788 596 1 -26.438433711216042 11.486512529535048 -0.7621608174634495 
1789 597 1 -26.457079506850064 19.792158036371454 14.664275095355691 
1790 597 2 -10.788054399039154 -22.26279809205699 14.863689775003778 
1791 597 1 -24.84881653823866 -22.362493097970912 -3.759106932877245 
1792 598 1 -1.2981329781739603 -15.028440124739634 6.817012462370208 
1793 598 2 -19.578371331386958 9.75473221381327 -6.150071075611454 
1794 598 1 -1.5857371712232897 23.97245916154465 -5.042560490730985 
1795 599 1 -25.80727821426349 16.180925208433578 -24.546241032957283 
1796 599 2 -9.273584460099581 -5.254448202670304 24.539586466276937 
1797 599 1 -8.256992804099344 -7.275438306265741 17.279604991143103 
1798 600 1 -5.645424830119374 21.524281258365868 -20.981376533285914 
1799 600 2 -6.8672479711739385 24.75321485352999 -20.550076610737932 
1800 600 1 -19.566437060131555 -1.3226890606389219 -0.4125134377556563 
1801 601 1 26.863693693251356 -16.37029017866395 -0.7226187758150111 
1802 601 2 19.650234799150418 -16.934003983055824 -8.506738262648415 
1803 601 1 9.166610386987124 -4.009669817563015 -7.615071506482508 
1804 602 1 -12.765628393572724 10.463105986549785 -15.038837003985703 
1805 602 2 10.684096480638352 -14.130143512035882 24.645151070164367 
1806 602 1 -19.98208060783317 -1.1330402562408857 -4.224136987837923 
1807 603 1 26.360479899098095 6.7050299683793 -19.77620777620212 
1808 603 2 20.92138861768158 -14.224203495310729 -2.9551376986163262 
1809 603 1 4.008422091785949 18.25456533640819 5.745796183557424 
1810 604 1 14.286151597857867 1.746650615822393 17.83495431442209 
1811 604 2 -22.354734609761707 -5.9459850184661 -2.1073677907243678 
1812 604 1 26.752087794787663 -14.758070740108508 4.73481008951428 
1813 605 1 -14.44569430298404 -0.7963222675177306 14.739122481939368 
1814 605 2 -25.130040491495873 -17.355015752773554 -21.378264819951053 
1815 605 1 26.37647004995636 2.5885860354158154 15.240644442889803 
1816 606 1 22.870812302638775 7.686282417276139 -26.40942851524574 
1817 606 2 26.574099363851573 -18.622451883657593 21.49940526962994 
1818 606 1 -21.54579222660934 -8.049077780812926 18.783481635015548 
1819 607 1 21.372229712154315 21.80899270997437 -13.7736994380136 
1820 607 2 -16.14509651759615 2.837995821633289 -5.892852362261877 
1821 607 1 -6.735927641448651 3.741491736474199 7.6808165535624084 
1822 608 1 -6.663705258171124 24.617693668436566 -9.578951648592387 
1823 608 2 -20.26416629978279 5.0312871240938435 -12.145010725127747 
1824 608 1 14.080483894987388 -16.589599214252935 -3.716857108375578 
1825 609 1 3.0500139279605705 16.068829417331344 -21.46475538123365 
1826 609 2 4.37335269356457 -24.220339949994077 19.619144562064612 
1827 609 1 -2.3761959642331654 -6.990323411346743 -24.817380610288197 
1828 610 1 -3.4453089581601652 -10.906578358215043 -25.069073607147132 
1829 610 2 -1.806590760435519 20.92896972081202 -12.138465541909788 
1830 610 1 -24.352120866638288 -1.0294302570941518 8.355916991406936 
1831 611 1 -16.628870856709213 19.57504735558973 14.1928556072667 
1832 611 2 -5.026331059489436 -5.66637827020196 -4.235013733060441 
1833 611 1 13.71284466814381 17.681853530708374 6.780556549489766 
1834 612 1 -20.45830420421025 -7.490743277346262 9.994187840565878 
1835 612 2 22.960945590159042 -26.64356529748973 -25.669409607578093 
1836 612 1 -2.884353761596916 -12.649699507801925 -14.680387345381817 
1837 613 1 19.93313069407869 -19.936817702360905 14.166375519508932 
1838 613 2 -0.3365281115581453 7.402086017094035 -9.132383271799757 
1839 613 1 -24.06803669736052 20.32677047055983 -9.662056437249497 
1840 614 1 -12.289250651559886 11.46688182209573 3.816572082626763 
1841 614 2 -10.464238179974721 23.023402068318937 -6.781355293472554 
1842 614 1 4.807346720240432 14.245668060388851 -8.954047533311982 
1843 615 1 14.46791774172437 21.81456019604284 -2.624889661540653 
1844 615 2 -10.782234765105457 -8.719468941304235 -25.932236105839195 
1845 615 1 26.557480751611763 -9.755858608852762 1.3303164278154505 
1846 616 1 -0.06675062029895429 -19.61416080815327 -17.87456742323581 
1847 616 2 -10.343283812085655 -22.819247754360767 15.297687621890162 
1848 616 1 -15.466970562371685 4.647920702636323 -22.377859180365988 
1849 617 1 -8.097270380957376 14.066212015473454 10.481748694693465 
1850 617 2 -22.816699667080442 15.356253378726613 22.64025587992043 
1851 617 1 12.983810838252516 10.429468607380159 8.178917978536504 
1852 618 1 -22.81598234042343 15.800160470700455 -12.13559003678085 
1853 618 2 -1.3792607995558157 15.718722152236126 7.680214562966576 
1854 618 1 -24.663036167132923 -6.468612441492272 5.231454963740951 
1855 619 1 -4.643199835631695 10.226852394864935 18.086170758516197 
1856 619 2 18.858595386463804 7.370933880732551 12.53757571181049 
1857 619 1 25.44010332460214 13.667243541456685 15.882836691507144 
1858 620 1 -11.560741217956048 -25.93726715920176 3.136614008544065 
1859 620 2 25.842551114762962 -26.98031219700977 17.570676074632317 
1860 620 1 12.777588842137497 10.545155398256355 -13.766697140988573 
1861 621 1 -24.782078824243953 17.155267232553527 26.910293174425377 
1862 621 2 -17.94030354054301 -4.69744570992226 -8.104259545279955 
1863 621 1 -11.64009080865883 21.1087053992132 -0.032714386527029404 
1864 622 1 12.041967945439374 -10.196109318209611 14.032919867416368 
1865 622 2 -18.28432038363288 -11.214315846103531 -19.783112384382513 
1866 622 1 14.865935611249597 -26.821277329544873 -4.6288020543765676 
1867 623 1 -25.052009521053883 19.129025625479308 -13.477803630571618 
1868 623 2 -6.2366765278203715 21.809481679791162 -8.785180744082208 
1869 623 1 7.664674299074697 25.499979503634528 -19.183958519066767 
1870 624 1 -9.526803857871208 -12.441625552213765 -13.997776380816786 
1871 624 2 4.779254776922436 -11.42309212724645 10.706971400818269 
1872 624 1 -0.5919009676347535 -7.490336143603937 -24.099696091835455 
1873 625 1 25.579355872048893 19.54008217519523 -10.906535293605838 
1874 625 2 -16.725287615866584 -21.260375684339465 -4.573528353141594 
1875 625 1 -13.656173634091719 1.7168107539541317 -11.130796350921425 
1876 626 1 18.61203245302039 3.3456307221035075 3.5874072435781486 
1877 626 2 1.2939943982142914 25.342851615035137 -9.553653862539203 
1878 626 1 2.768562998013632 18.707941491983924 5.581873602908324 
1879 627 1 -12.680260481773555 24.528182043844197 24.603641565953907 
1880 627 2 -22.235633013437678 -20.47110081538961 -17.810024400498854 
1881 627 1 -10.59259241774216 23.79636801837023 25.10854107794399 
1882 628 1 8.083365461942613 9.33211255010226 -20.335762241781424 
1883 628 2 16.03424453114141 1.6220946631274025 17.21242963487129 
1884 628 1 26.413803861501613 19.76123650921054 -20.406210479863514 
1885 629 1 21.00363015966061 0.8127353963345527 24.745185142397574 
1886 629 2 4.323979433644329 -20.18536345785208 -6.193460924669218 
1887 629 1 12.978132743155768 2.2371822424386565 -12.92871871850075 
1888 630 1 -0.5927751249670941 19.760428233640624 -19.74533356361377 
1889 630 2 -15.262671271547234 -4.413374844951072 -12.801988686541026 
1890 630 1 5.180123944199693 18.28587355112024 -8.827062440206724 
1891 631 1 23.932805972622795 -10.290979408281633 22.783682271728203 
1892 631 2 -25.53340559985743 23.286586715153184 -22.111772812808532 
1893 631 1 -15.218522491273653 -24.440908667702747 17.487543606110286 
1894 632 1 -16.462324780276685 9.95506538828922 9.600141830416504 
1895 632 2 -15.179067876759355 14.972214846307978 -12.141653147777758 
1896 632 1 22.18722554110039 -23.59804084688986 -23.4043253015965 
1897 633 1 -23.144511801018687 13.290342132583525 -1.8434781416201922 
1898 633 2 7.42766670022143 -15.494384116697729 -6.732296859250219 
1899 633 1 5.099569463346505 15.602814905339976 -22.88343089375943 
1900 634 1 19.644382031613212 -22.41525218540722 -19.498279578781002 
1901 634 2 11.777331128191207 -19.57763512803824 -23.9469396831635 
1902 634 1 -21.001990662979196 11.33521719932071 -6.858503706376091 
1903 635 1 -15.207735743933096 0.14064401656665027 -19.19227219379408 
1904 635 2 13.673137921811438 10.545445353825926 -6.756940938602984 
1905 635 1 26.64560814802511 21.756866043231163 10.053957026326785 
1906 636 1 -6.4731797071819095 0.8843517980949755 18.873687932692917 
1907 636 2 -1.9317177761824844 10.496368114387735 -5.831732898696558 
1908 636 1 13.822133820559785 17.450295620912378 -15.368319256695003 
1909 637 1 0.6184848461512509 26.418760566438642 16.58444245293643 
1910 637 2 6.808875573082339 -4.210668817321061 26.149071169594734 
1911 637 1 -23.78869259099315 25.763279675904748 21.93305821064334 
1912 638 1 -25.265129348165008 25.479455791647936 17.6326313852097 
1913 638 2 12.28972062413807 -5.9788803377735 3.053523895166329 
1914 638 1 15.235687560109874 9.222428944200892 -23.389984073325518 
1915 639 1 6.521503074143432 -6.879818733141317 7.208846092936405 
1916 639 2 9.995060056970225 -25.681313077854192 -8.170347974429234 
1917 639 1 -0.21101524706547892 -9.461024506222017 24.990065974897725 
1918 640 1 -11.738125510436078 -5.201757664917022 16.75124337878927 
1919 640 2 -0.11505933312947647 1.7924091097951091 -26.52266870912134 
1920 640 1 -3.5257119958897185 -23.176384783012793 16.221889015641857 
1921 641 1 15.125743107370361 12.83970441443769 -19.60363593129571 
1922 641 2 1.2487282342524892 2.7120616656660843 0.259342059215232 
1923 641 1 7.627872601879496 -7.459541058017884 -11.247346377543227 
1924 642 1 24.463018314574867 -13.264768312177019 -4.6024420618875155 
1925 642 2 6.147302126889663 9.105824699733517 -18.780781070576708 
1926 642 1 -13.057576821887096 11.703786457322835 -20.016341503379493 
1927 643 1 3.340522401511503 -7.255319943262268 -19.07498934121967 
1928 643 2 -0.0618938922203327 19.024673346322324 16.36803406477415 
1929 643 1 11.795131378659889 2.7973228233803766 -16.715197904477947 
1930 644 1 -16.18258848272329 14.025338125033954 -23.415995627602083 
1931 644 2 19.716386953403777 -12.85091257639087 -9.100341129095856 
1932 644 1 -7.8045618160643535 -7.37419215595979 -12.995760911449267 
1933 645 1 2.50183513755573 -13.687874704483994 -19.083569334247716 
1934 645 2 11.03350537647588 -17.259068608286334 -2.1834234806364847 
1935 645 1 -21.331488787006943 2.255794380060795 -8.602768823771811 
1936 646 1 10.88879223000692 22.527573616219335 -7.58948517517905 
1937 646 2 -7.053267224542136 -12.378318789289573 -5.004173168882009 
1938 646 1 15.50182536336029 7.136677585577246 26.203408999917947 
1939 647 1 26.605261604571872 -19.25074229931836 -1.6824014426591631 
1940 647 2 -5.327439703980051 1.7694025626983674 -18.731088980819084 
1941 647 1 -23.169037186040942 -2.1735619091591936 13.286906374662827 
1942 648 1 12.204372077786033 -11.196785095976585 -12.214519033630928 
1943 648 2 1.1712849241339747 -5.564867345287372 16.67539563297759 
1944 648 1 -0.09842592309329845 -1.9216856533553646 -16.394208170236347 
1945 649 1 -12.846004555944042 -4.933329710918933 21.464070012471872 
1946 649 2 -8.496564100283429 -13.758438639176426 -18.668375386111833 
1947 649 1 -0.7364401779567338 -10.1461730340557 -7.307429656059146 
1948 650 1 1.45282999992682 -21.33175119733643 -20.82713200929203 
1949 650 2 -11.14971299255937 25.518506657983437 -1.4911123026740825 
1950 650 1 -14.086271433448845 20.213825769892708 12.793603528380622 
1951 651 1 -7.572987817265542 -0.17810954282694524 12.565673549736445 
1952 651 2 5.773439766945351 -12.905608437212326 11.315058486764535 
1953 651 1 10.366812640069377 11.422519863524862 -11.466863356790988 
1954 652 1 -22.73228222056377 21.930028162745664 -6.65549861966678 
1955 652 2 -11.25279190944389 -17.86940451047797 -7.741841729698063 
1956 652 1 -12.179124673724857 11.473379738015993 -8.171021236517092 
1957 653 1 3.181078864235751 -15.553289597356638 9.82895952913671 
1958 653 2 19.285531477185636 -13.807043969898785 3.7452829257292493 
1959 653 1 9.440165469263661 -24.54442471139991 -14.935426192683801 
1960 654 1 -22.697455135172262 -12.38294051906061 23.66791341476197 
1961 654 2 10.047492116915045 -2.568684614786328 -10.894500232214618 
1962 654 1 13.656939422270426 16.33844247631137 -18.149637440573194 
1963 655 1 11.939384619516296 -13.39931608343651 15.080112818980794 
1964 655 2 6.684543635451284 16.532991451986163 16.880181959112974 
1965 655 1 -6.922820798571337 26.579167137816867 0.35703512224340983 
1966 656 1 -9.150838043350483 15.195291775047565 3.65739144114778 
1967 656 2 -6.07441589111961 -7.248829305720303 25.897139128938896 
1968 656 1 18.419745672262607 5.9986704647552855 11.385509252546221 
1969 657 1 15.022760636676878 0.7455482664831479 26.908963555274 
1970 657 2 -8.225040594740666 1.588942942098555 -19.556498634695313 
1971 657 1 16.66360669684088 21.264093219346215 14.444427536714514 
1972 658 1 -19.058831366372523 -15.571631927035565 23.895015995609 
1973 658 2 -6.791574742507962 6.7517218606943885 -12.508961063927792 
1974 658 1 11.313266971847952 -14.757375803056272 -16.732068256827546 
1975 659 1 -3.2171948365679697 9.064676105781224 -11.468290359842296 
1976 659 2 -23.94888711399301 -15.746210743649375 -6.392317818443512 
1977 659 1 12.022351699097243 -0.37223987794873636 19.65204560795617 
1978 660 1 -17.516398983978284 12.611583692273115 -19.949779869832927 
1979 660 2 -6.612638670985014 -1.4909154981834192 2.5416837592628845 
1980 660 1 5.050421583743898 6.4833296332256225 19.916033142718007 
1981 661 1 -5.0123687005447195 13.133962977020282 23.997312988454674 
1982 661 2 2.128140657293425 7.88893655147676 -13.83587043310027 
1983 661 1 17.791018775538852 -16.740245678726883 -6.826559355193979 
1984 662 1 -10.982515538977804 20.29662621867523 12.338052129702817 
1985 662 2 2.742759794625524 -16.708929100878514 -20.45733802068043 
1986 662 1 4.515115073753993 12.88476270139602 -23.249698060461753 
1987 663 1 19.861689144465856 3.3876849561653906 -11.082606446210194 
1988 663 2 26.642033404490512 -4.075660290827688 12.055241137891258 
1989 663 1 4.2553680245165815 -14.347695070342855 -26.06733092074279 
1990 664 1 16.408716109760327 -9.642118953052815 -20.62886041200536 
1991 664 2 22.841889645168983 -19.968631995536512 12.931910490185189 
1992 664 1 -9.064243964001939 16.72275876229498 25.850393530611186 
1993 665 1 -18.183952390491537 11.320518191307322 16.950334288010147 
1994 665 2 -5.683995594776274 26.266132258061745 -9.514150828325313 
1995 665 1 -18.59664588875509 -25.89785444203214 22.398767268717073 
1996 666 1 -13.943386293269954 21.729477258573638 -17.84308527344283 
1997 666 2 -9.911084040481477 -26.712822657466923 18.866870023950042 
1998 666 1 10.1270492049319 20.608756659317407 8.582611557906247 
1999 667 1 8.274390879702011 -6.0782088232225355 26.174979905061868 
2000 667 2 -2.8709920936713793 -24.97790198270416 -21.38572365307813 
2001 667 1 18.14761747858129 -25.32770921013595 -16.869211236901165 
2002 668 1 -8.637663901098037 -22.747623040932435 21.817643136407824 
2003 668 2 -8.15218549084248 -10.254795321385252 18.899749824563074 
2004 668 1 -20.130264706913387 -13.275678691525808 -18.850821450339012 
2005 669 1 -19.886326197208653 -26.231862177008576 3.4970308495116242 
2006 669 2 18.693279554924672 -0.4371952864955446 3.8033237862635794 
2007 669 1 6.349249069159889 -26.537229476416847 -10.063198211058285 
2008 670 1 2.6811403082745997 3.866191632236859 -19.69789423917424 
2009 670 2 21.11035760245342 -7.4548962014004125 -14.291683879333313 
2010 670 1 9.271853511217103 5.449879176183963 -9.97845462162612 
2011 671 1 -1.3610415533303808 8.790010288374198 3.168165935322932 
2012 671 2 4.06257514046613 1.3233760418502065 -16.883967326343978 
2013 671 1 -16.55483087471839 14.32039681993043 -9.926757503125131 
2014 672 1 12.625284214666152 10.483176783692358 -12.65342014607265 
2015 672 2 -8.088973154905094 -1.136943920802306 -15.206236164774662 
2016 672 1 6.291243067032724 1.5132224313706182 -0.08352496744512905 
2017 673 1 -2.6488164855223992 26.96346773765277 -14.586493016215245 
2018 673 2 -20.07447267986286 -8.377336089230727 -3.491372109018556 
2019 673 1 16.841859788835606 8.80276425345513 -0.6636866845473222 
2020 674 1 -12.271587889549037 6.918829340806845 26.649293165943604 
2021 674 2 7.113030252435458 11.61248332926705 23.57719046258709 
2022 674 1 17.567874879881586 25.22726130194632 15.657826965752136 
2023 675 1 -13.963489337663486 -24.92031926272888 -8.913970406332982 
2024 675 2 -6.6477136873120095 -5.207370345481127 -15.863381000779631 
2025 675 1 12.930910077802508 -13.434206782153307 8.988996650566229 
2026 676 1 26.83218519833011 7.34794019298274 -25.50071333086305 
2027 676 2 17.595084510698292 -25.712067455436383 23.581066652035034 
2028 676 1 -16.302877027191187 -3.9201491022886934 -3.760338002497214 
2029 677 1 25.913234540211135 -1.2484466687349283 26.38975968659674 
2030 677 2 -1.329748889735491 9.975809909339787 -3.018235789030431 
2031 677 1 15.591675604097361 -23.128894985306466 -0.5554668056308216 
2032 678 1 -15.18254975849481 20.514137477045054 -17.119605085674273 
2033 678 2 -19.454082534339133 5.5585751204617395 -1.5435396510290502 
2034 678 1 -4.716795351818202 -15.398423649543345 17.14547825231925 
2035 679 1 -7.765809667752286 -22.00729712821308 9.995147220737621 
2036 679 2 4.38522685656493 16.89481015168125 21.2030880078375 
2037 679 1 18.46064285352957 16.790930021610393 -11.821600711983447 
2038 680 1 -14.286688735109054 -16.53229193901622 -1.5801964691459958 
2039 680 2 -17.657134576754903 -22.518242132249917 -26.97812062635918 
2040 680 1 19.982782193985877 -15.746406848978186 5.174061717745872 
2041 681 1 -3.7940376511483187 -15.80840222260328 -9.993683718664027 
2042 681 2 2.1398335945744904 8.985431560532945 -26.35484986930795 
2043 681 1 -6.512990591906764 21.347472673306676 1.7621994625488675 
2044 682 1 11.984172075172104 -12.621931531401719 0.5947295277099549 
2045 682 2 1.1017030035819744 2.1774808344803773 8.101411817664946 
2046 682 1 -20.0219645146349 -2.440724980257876 -3.0719257798976294 
2047 683 1 -4.319793134086424 24.455618855367163 -26.836531235025937 
2048 683 2 -25.376435758130253 -16.177961505570696 -0.6832376371988786 
2049 683 1 -13.483266858872508 0.18419196802564386 -1.6362521353898245 
2050 684 1 24.308782178795504 -14.609708274678248 2.3023945244039936 
2051 684 2 -15.87395890711711 20.783767086156047 4.388915056048685 
2052 684 1 15.190098849243583 -25.072127296934035 6.357657182315634 
2053 685 1 4.90759414218919 4.549546227073144 -12.563161976692133 
2054 685 2 -17.9379112901558 -10.48695591591581 25.190360901283526 
2055 685 1 -22.78499388212945 21.186537596285206 -1.0333872468630183 
2056 686 1 12.331351317545682 -1.8239493532841387 7.859688456118285 
2057 686 2 -15.832297822123847 -13.969019584115214 8.612931533270142 
2058 686 1 5.949381739456186 -7.971701077085118 9.565182342264087 
2059 687 1 -9.363536640459355 -20.909741475441272 11.843281107282515 
2060 687 2 -0.9912277691312781 -18.681962694814292 15.945528116595916 
2061 687 1 12.917323894650579 11.994660598635022 -8.513004351704385 
2062 688 1 -20.487222606318944 -4.309650096768877 -18.016002937885744 
2063 688 2 21.644204568995683 -22.72096083094658 1.5555497862089567 
2064 688 1 -16.056554437433885 -16.212474888498704 19.10101469629366 
2065 689 1 -17.720315627738785 6.379807913142422 0.15608447474171072 
2066 689 2 -3.1353072717075143 -16.58491501644125 13.719589436980677 
2067 689 1 26.031387234513723 -20.738632149801234 23.449283657602578 
2068 690 1 -23.89389234935843 13.492644681325999 1.444575042176318 
2069 690 2 24.94396648258423 3.6183901345434286 8.008240741911003 
2070 690 1 16.839999462111685 -24.32219819067964 -24.124656121783318 
2071 691 1 -22.437582168960056 -17.964365879135446 0.34650267964070025 
2072 691 2 -8.256384993243326 15.485635471700604 -15.744609690822966 
2073 691 1 -21.374993860933174 25.456748506927497 11.68632718991141 
2074 692 1 -14.415298463002483 9.978176861592196 5.539628788652301 
2075 692 2 -25.2164017300807 1.0563713499003882 6.365355108745284 
2076 692 1 -16.669436132049363 8.740788028462454 11.219405466718449 
2077 693 1 4.0537917689712195 5.548285017388977 15.710187742581816 
2078 693 2 6.8365002875916545 -25.554234775505115 -12.040301074166582 
2079 693 1 6.729167387321226 25.762226974784113 8.957898590558223 
2080 694 1 -7.165637665354964 -13.976673646534522 -25.217767464191645 
2081 694 2 17.115695036371427 1.0468027441497156 -3.8174915373171103 
2082 694 1 -24.014885393922427 22.50403585386497 -1.8573859525668688 
2083 695 1 12.665836336378604 -23.254615341781683 -10.573802250420584 
2084 695 2 25.528045761852766 0.9715253007209768 5.273809696543914 
2085 695 1 16.70814709238156 8.122774274528624 18.021218581457227 
2086 696 1 25.677154208347353 -17.477519144873895 25.225310067857627 
2087 696 2 6.934821252196933 8.694061444210043 -1.736492221174263 
2088 696 1 22.927251908294586 -6.673326565286246 20.11305370969609 
2089 697 1 -11.784547868028927 -3.6444154463404423 -5.837851529009818 
2090 697 2 -19.690400778685017 17.90945652540558 11.010933249862006 
2091 697 1 -16.9324578165498 -12.748823530763111 23.469365274915063 
2092 698 1 -26.09734382361288 5.928504681150812 18.539698487221322 
2093 698 2 1.8650209409851541 24.748106632499244 -22.259529625953085 
2094 698 1 12.313421995492682 -21.693960218967938 -0.36541373709599867 
2095 699 1 -24.006514258877683 -19.87563483502047 -1.9151576382839153 
2096 699 2 -17.409802711240225 1.7141330914421857 25.90690823638944 
2097 699 1 -24.202942917787354 -2.937847626373877 16.479150982124025 
2098 700 1 -0.7053669291724773 4.888469236332018 -18.981619979078506 
2099 700 2 17.701373907436142 -16.13296698690818 -20.744121258544332 
2100 700 1 6.97288729075985 -0.5377011646537149 -16.91146191854139 
2101 701 1 25.622341983285537 15.056089060232821 19.836481456562268 
2102 701 2 18.229641858126868 2.5726453435831758 -26.637414673453613 
2103 701 1 16.543215000368285 20.023648494105828 -12.127250244469007 
2104 702 1 7.71403017601758 -22.598376405046444 -0.8724780650454598 
2105 702 2 -13.655382539034742 16.917733885255828 -11.982513056046361 
2106 702 1 7.946837284447589 -17.77154681127682 -16.492597660336152 
2107 703 1 -5.0733175733689535 -15.420772671813417 -10.253483107856002 
2108 703 2 -26.038061278452822 24.38187885357123 -21.62057722444736 
2109 703 1 -18.783795930527404 -21.23881672411133 19.147050261694048 
2110 704 1 18.646560370857763 -25.968590898336764 -6.658783835142124 
2111 704 2 -5.607562580142957 17.146159435312143 -6.659649914371517 
2112 704 1 1.2143944675744223 14.108157658545586 -11.280051323941267 
2113 705 1 -4.081371052369896 -11.789565150545467 -9.61316674250983 
2114 705 2 -17.059006873556164 -21.88137349312084 19.510109504948552 
2115 705 1 -23.53596828681287 5.684743962732895 -1.1186114353692282 
2116 706 1 -20.145863363397403 4.803417321105833 -12.058413300164863 
2117 706 2 -21.012749880461868 5.521972297229574 17.177171440304356 
2118 706 1 20.875257268386868 -10.675099429065313 12.95503369355395 
2119 707 1 2.731436251460778 6.922021622818704 20.16206913580499 
2120 707 2 -18.668725926626287 3.55300334154008 -25.857781273679745 
2121 707 1 -8.815933272097883 -4.5157569326823825 6.983942994338378 
2122 708 1 -20.767736800379716 19.138403188948715 -12.688879605076577 
2123 708 2 -18.831164038295146 -12.11234083286196 18.226828019647634 
2124 708 1 -7.7069060586933595 -3.892412773634547 -24.02075222813714 
2125 709 1 -25.0155745504588 4.03187714105923 0.0671711530956145 
2126 709 2 -19.200780691764237 -26.406471843352087 21.88833789942806 
2127 709 1 16.79468535929871 -10.705713541190025 -8.720529390182996 
2128 710 1 -8.271718274475642 -2.4118356585040246 -5.901991661839979 
2129 710 2 22.569796811506208 -20.8644822047434 21.520887755951627 
2130 710 1 -7.4048562426365265 10.784303177495033 -11.445426467929012 
2131 711 1 3.971348942127584 -16.54958503828005 1.2289111914263202 
2132 711 2 -6.2064392011324045 19.538586288125117 23.07655585943771 
2133 711 1 -10.320613917443985 12.185888206115905 -11.392055089254868 
2134 712 1 -5.940425668373823 -7.3252628016815855 4.139505662419975 
2135 712 2 -16.81736615039501 -18.841088577350515 21.279405957417318 
2136 712 1 24.630895716112327 19.15620141412846 1.5174825318662784 
2137 713 1 -11.316575341738721 -5.5404235949588525 7.989431702255068 
2138 713 2 -7.705095936758234 24.473259965262606 -15.932593985785847 
2139 713 1 -14.563066956869417 22.078709467272347 -0.5056468426439373 
2140 714 1 -15.702002822243191 20.855186388328704 -3.3786489581901407 
2141 714 2 -4.269035837622468 -24.31988810714895 -20.87554401570949 
2142 714 1 11.782882813261871 6.701662316678231 20.066847471122024 
2143 715 1 -12.955333182449765 16.08887902296204 -4.503174944267542 
2144 715 2 -1.183474959296131 17.742378128269685 11.885668061389666 
2145 715 1 7.730057485282387 -26.756642281643888 0.4272537187626817 
2146 716 1 16.08828637018835 -18.81482372036225 -9.59770739636491 
2147 716 2 -21.003259626561253 -21.16900335577167 17.89848515666243 
2148 716 1 0.570430028340418 2.8359225532961148 -19.069750857627852 
2149 717 1 21.475669918732997 -20.45649205107702 -19.264458192636738 
2150 717 2 -16.950031388388943 19.1263668898859 -14.485853516602104 
2151 717 1 -1.2895499335510259 11.093050324139163 18.412325822464837 
2152 718 1 -15.852963254573238 -25.9889878483088 -10.83417852005875 
2153 718 2 7.601775726630777 -6.801366536102453 -3.4909723814972686 
2154 718 1 -10.12639965955977 -10.025129192095434 -7.122763453818759 
2155 719 1 -16.64085908105209 -3.749921556101537 -24.387308812774865 
2156 719 2 3.205956330640099 22.273013053819064 -0.5399109408375224 
2157 719 1 -13.101986987015945 11.79158650445801 -9.146278557112936 
2158 720 1 11.146818185973785 17.404045773320185 9.943218120023182 
2159 720 2 10.960803703257362 -15.84700684704502 -13.94115012619371 
2160 720 1 8.817572482619255 -22.778130510860645 2.1192847796843317 
2161 721 1 10.59647717113409 -10.442274212655978 9.432078904523053 
2162 721 2 17.14879037864415 14.033620213297596 -19.98494229305139 
2163 721 1 11.461522696567805 -5.086552911436147 -18.10063613264271 
2164 722 1 -18.147144179573967 -19.13416917332833 -2.5624853071300073 
2165 722 2 26.537263664625584 -7.760814027166266 3.153199342045859 
2166 722 1 -21.19523923584131 14.42235438939749 -2.6438240480410364 
2167 723 1 22.611365305924146 -21.184179446935683 -2.0813487513296067 
2168 723 2 -13.583765225090616 14.73762498100497 -9.045683394962353 
2169 723 1 12.409661578273194 -22.950397671084218 -15.474598949499839 
2170 724 1 16.481783900288413 -2.7913188146364014 -5.6788201908283895 
2171 724 2 23.254158985929358 -14.82425389115841 -13.692773293824269 
2172 724 1 6.178511848111114 10.547447034548114 -0.625961189051182 
2173 725 1 -8.670032093097987 -9.163080657108488 11.518001809702255 
2174 725 2 3.9909885755062753 -26.839213973615998 19.436367886020648 
2175 725 1 -13.641404450878124 -15.495286822186964 -23.299039595733557 
2176 726 1 13.7737665813288 17.925955857307585 -25.675333379997134 
2177 726 2 -22.24661959672467 -0.5613618616236202 -14.766777041517035 
2178 726 1 -15.763243187585493 -23.062885083318992 -7.013351163670556 
2179 727 1 21.711931741829197 18.84008913062194 -11.578358007592335 
2180 727 2 17.782151453681358 -11.33248915800904 2.592966163211848 
2181 727 1 15.914875875133234 -2.1927462978213796 16.59206499508248 
2182 728 1 -5.5910924979601795 -14.983132102972306 -18.789713728568366 
2183 728 2 15.107788564291006 15.18610275153113 -20.993611097821418 
2184 728 1 -1.593718622754512 -17.149211009252348 -17.17425874839994 
2185 729 1 -23.80998277792885 -0.6568345657488308 -24.293175009413606 
2186 729 2 12.104186192666916 9.840188526609822 -22.386537461099092 
2187 729 1 -3.6122268784825025 14.456337670296065 22.273693963922682 
2188 730 1 -17.12452548985347 26.29734744477622 -23.843468249692116 
2189 730 2 -7.318750544740048 -19.25091357584747 -11.749461896010482 
2190 730 1 0.6343921791986098 -16.977445900480955 -19.245602706744375 
2191 731 1 0.34196465664037845 12.19915980844921 -10.754746738645768 
2192 731 2 0.7279351093825959 -3.5887155767447254 18.695826877539773 
2193 731 1 -14.461438721692236 -17.77907238965968 -13.752124332859918 
2194 732 1 -17.886263946413905 -12.367535407093946 -25.137485642769043 
2195 732 2 -15.936773222402639 19.345253343011798 13.66170826681963 
2196 732 1 -20.365325674337257 15.723206294151247 -15.76821895756653 
2197 733 1 22.99935407580331 3.996126374239765 15.855994172440624 
2198 733 2 25.24573282441132 20.639368262036456 8.900716595085171 
2199 733 1 8.412732495790458 19.6550313296 10.36564110419934 
2200 734 1 -17.050693853984814 -20.18160284923785 -16.293403924314198 
2201 734 2 21.64787587983406 -14.843117462833721 14.909699990056623 
2202 734 1 -22.79813498212093 5.182022295462666 12.537126987757539 
2203 735 1 -25.733679937879078 -18.837564889334672 -7.395072096472397 
2204 735 2 -12.202361355322733 17.891625567775655 -25.966470335002022 
2205 735 1 17.963577232286745 -20.140377535115107 -25.363629910698585 
2206 736 1 -0.22696386168862404 1.5806387943116746 20.89228683900454 
2207 736 2 12.322797014543013 -1.7100450630076303 22.883359136612277 
2208 736 1 -11.386743124137098 2.666247238017238 6.025893263467708 
2209 737 1 14.67684411980678 -8.790310212775697 0.11880738618225806 
2210 737 2 26.904075634319177 -16.31217678395685 23.088831109951506 
2211 737 1 -1.670648901697053 18.847396680342186 10.191209997354747 
2212 738 1 4.009479933357802 6.915580113609479 -9.36198728827084 
2213 738 2 -11.90403601778196 2.4743538133501595 -15.465674469209386 
2214 738 1 -21.558616065151845 -15.85935013709461 18.735825202082403 
2215 739 1 9.9946960612128 -16.02856895068519 -16.00406036784034 
2216 739 2 -7.565034093748064 22.153727198409726 -21.893638649579618 
2217 739 1 -15.651762172440547 -14.37711059710489 22.142162569837865 
2218 740 1 24.828704364606132 22.054391478874003 20.86934886517792 
2219 740 2 9.512045042059064 25.038579213038474 12.4787504548543 
2220 740 1 -24.14920460260416 24.330987537495382 15.069277682565264 
2221 741 1 4.326485391194318 -20.417835843337645 13.412360164205566 
2222 741 2 17.048341377748542 1.498278692223316 18.52624899611525 
2223 741 1 14.878340062932466 -22.42857836673111 -12.42187554970878 
2224 742 1 -16.178984947280803 11.827291719464355 16.539024499621455 
2225 742 2 -24.585447427018842 21.924653522660613 -6.300756155107127 
2226 742 1 -13.216803611745519 12.821721863216666 -21.172838096246625 
2227 743 1 -2.372495337809834 -11.118184505732335 -6.764067977672887 
2228 743 2 2.122543250628837 23.9223733222427 -4.83943483261757 
2229 743 1 6.321989035699474 7.091130020138024 5.367656934162682 
2230 744 1 18.816870130644467 -24.481794540192116 -20.630886674368593 
2231 744 2 14.009981631806788 -3.9510320271718022 -11.540251510620536 
2232 744 1 21.79507402874954 -1.6495346276493237 -4.424648941419001 
2233 745 1 9.986529994798097 26.08717784052812 24.259888089811284 
2234 745 2 -19.25439033766831 -13.397422091494255 -1.8245967124085638 
2235 745 1 -8.161411688499612 -2.6038159120155626 5.7171608360203905 
2236 746 1 -4.051256758848449 17.27100628866487 18.65843846529919 
2237 746 2 -0.4166781496972156 8.833301541064827 22.256598021433433 
2238 746 1 25.251270852389247 -21.945650713047257 -1.076931712559201 
2239 747 1 -0.8444904145323839 21.461959912774404 -5.550048597966285 
2240 747 2 22.23553502266227 -21.726936642794705 -6.217999567536442 
2241 747 1 10.21502418346546 -21.033086758820097 22.9794913499994 
2242 748 1 -9.12235155443917 -25.371717063221656 26.488392960156716 
2243 748 2 -25.755168304930073 -25.122702850571404 21.253183752421826 
2244 748 1 5.882371843806638 -25.44281018229019 -21.73601122919613 
2245 749 1 -7.804416075774995 19.47776002727681 0.6925671451076454 
2246 749 2 14.627665755960109 -15.628083016834491 11.950548115859824 
2247 749 1 -9.465544007560968 -15.791130315900737 -3.6084771423865085 
2248 750 1 24.06953808511588 13.647466573522479 10.593760359398402 
2249 750 2 -3.921936046632453 20.742544826693745 -8.422401280233935 
2250 750 1 -12.554673320862037 -22.493056986293745 2.116735397964913 
2251 751 1 21.216284682346817 -1.8889932454291234 21.058814120426703 
2252 751 2 7.804105886877991 -19.98316302007923 -15.787283870391828 
2253 751 1 -17.059932209187863 4.522584546703296 -3.503541148814893 
2254 752 1 -10.588689638247871 -6.107825771005942 2.9372335522612083 
2255 752 2 9.289886149767021 22.80358380820394 -12.864230543342805 
2256 752 1 -24.21211024486469 -13.177266302860511 -17.775008567213767 
2257 753 1 -5.5151334897029045 16.289166075965383 20.16364569164213 
2258 753 2 -23.727115965952812 -6.506965482318485 23.228590330346258 
2259 753 1 -9.727354207951347 -0.27361257406989026 13.28650446223913 
2260 754 1 17.540318682096867 -17.25555409877932 -26.778158801419604 
2261 754 2 -5.026837605024916 -14.213391377753673 25.189223032353915 
2262 754 1 -18.886015171024525 -5.610696374020833 -2.190664902962695 
2263 755 1 1.7516384570635246 -2.2195399927390795 -19.646802458748812 
2264 755 2 14.609872923031794 -9.919012533219309 6.341540596793507 
2265 755 1 -26.62823150897025 -1.0922238158800006 -7.937261345765805 
2266 756 1 20.045322491338275 -24.065767076860205 -3.147401037450596 
2267 756 2 -6.447207557883829 -3.9895000240502085 -18.869404388989683 
2268 756 1 -16.195463048256606 22.765994046707867 26.684748757522527 
2269 757 1 16.489297985821437 -0.8918751949591446 -17.045990285198826 
2270 757 2 -15.899162283343976 -15.723705823303131 -11.933854688832124 
2271 757 1 10.813154962803466 -1.3841818243874258 8.114467877703262 
2272 758 1 -21.125033678338422 -1.6753107053124658 -22.138042381451935 
2273 758 2 -23.64080725059707 13.622049467594806 -25.720801405954354 
2274 758 1 26.12236058690047 -9.164904517332364 14.998368006985928 
2275 759 1 6.438754566839471 17.90054255736694 -22.258665945599084 
2276 759 2 12.485682564655093 25.159606615213313 8.846190702143943 
2277 759 1 10.37803937850164 5.093830484254227 -4.278324832097049 
2278 760 1 15.498900522742012 10.59509181927249 -21.412785379385348 
2279 760 2 24.42168973479631 -3.721534671741516 -21.417380924455372 
2280 760 1 10.052451456909452 -1.5804036620481519 18.46036329160429 
2281 761 1 2.121253574659818 -13.888422205324495 1.107734062857329 
2282 761 2 -24.634691445022284 25.087061272829615 4.320075453030995 
2283 761 1 2.574310625595494 -13.636154446146158 14.26879196806513 
2284 762 1 23.064578405024683 -14.569499315695241 3.3040885533945783 
2285 762 2 -14.579241025600483 7.6147422773815165 -7.464284757718282 
2286 762 1 13.069536064731935 14.62010755774515 8.753051289927626 
2287 763 1 2.348697059717942 15.280955884729927 -11.373433228377607 
2288 763 2 20.63656702579629 17.04724879846831 7.581273917049295 
2289 763 1 6.754696117580714 -5.283440672402698 -26.606810017984643 
2290 764 1 -9.803663223065847 9.181099721427245 0.2941109549043901 
2291 764 2 -22.638748423456292 -23.65781298273344 -17.25366991400967 
2292 764 1 -17.029450312739378 25.698742401674075 -25.989448908140627 
2293 765 1 -26.77458146938341 -21.04591527111212 10.821622603825922 
2294 765 2 6.512647839773031 13.595784127397792 -5.778374331479636 
2295 765 1 -22.092685216659145 -13.307925035070838 12.416436326971429 
2296 766 1 20.833660133284383 11.486534358542421 -18.519634168824158 
2297 766 2 2.774308857943687 -24.700681775300623 -24.81734576126951 
2298 766 1 -13.321640185467006 16.47809180511232 -25.585691308631677 
2299 767 1 -2.8176829730162467 -10.81699040526447 17.561192290805856 
2300 767 2 -10.626985281829363 -13.937193192351257 -22.43826876604169 
2301 767 1 -17.91031805064191 18.898714935564584 -10.586009703819968 
2302 768 1 0.9384724175726724 14.033808380913356 -20.467524785318354 
2303 768 2 -2.2288977333279405 -0.7423125725472275 -25.439681022776643 
2304 768 1 21.28751448370165 19.376257222812256 -7.181096753554126 
2305 769 1 4.538441429376938 1.461509164332778 -2.0119417912027053 
2306 769 2 3.6180530485565825 -5.031620053465865 -20.990983984167325 
2307 769 1 4.572797226787436 -22.266333831614993 16.413832109146682 
2308 770 1 -14.93299701679621 -23.688694850586455 -10.572587721516285 
2309 770 2 -24.693366878544566 12.724675555582536 18.323063416984397 
2310 770 1 13.69804151156206 24.82936478018066 19.493578757464114 
2311 771 1 10.97027471972465 3.3761048278369117 2.4161621066619574 
2312 771 2 -5.133922234251845 -20.87185754535671 -25.912712455745684 
2313 771 1 -14.199516934891115 19.1974885424358 11.028101359103545 
2314 772 1 -19.90332913634034 -16.344554784295646 -14.700387865966224 
2315 772 2 3.6230026748393627 -13.345017669885152 23.771798212362178 
2316 772 1 -3.5828489439833007 26.832731416058692 -8.0356369093953 
2317 773 1 -21.432005056046734 -25.99686596562415 -21.627449703020197 
2318 773 2 -19.703605355866266 -26.036495667994192 -17.63694181681501 
2319 773 1 -17.028870844152678 -9.50235820830789 -2.6943944149693237 
2320 774 1 -18.74211367631674 -22.277305452871815 -24.658269572741855 
2321 774 2 7.128734806924356 -0.4596727327511694 2.547316254438556 
2322 774 1 -26.51713903457093 -11.335678953917371 -10.41559287434325 
2323 775 1 -7.606804995237823 22.278288314163305 -24.87295467129413 
2324 775 2 -9.546239406440495 -0.8662807144906566 10.005604049401008 
2325 775 1 1.877551660787713 7.017244166088425 -17.648755344121412 
2326 776 1 26.796270028269866 -13.498006069514787 7.771966283681145 
2327 776 2 -19.075550461326017 -17.375658162129405 15.442530512865495 
2328 776 1 -5.314181227848387 12.121677917380183 14.242453575649314 
2329 777 1 -23.591932218172225 -23.09426203007937 4.131637267186367 
2330 777 2 -3.8787427021243914 -3.280565150847348 4.73026077491269 
2331 777 1 -26.755331061411034 -4.912424391623929 -4.353197458387392 
2332 778 1 3.041994102683841 -14.326972012824218 24.149340807716634 
2333 778 2 -16.76917538087946 -16.791794895640226 -14.778130172367932 
2334 778 1 0.27154392627450363 -11.223724462734348 -22.88655461117143 
2335 779 1 9.486443007316844 10.99721907143902 -8.87350221762933 
2336 779 2 -22.09672127420779 -18.83447739817438 -14.952429768896337 
2337 779 1 21.079540990600577 26.44762897752983 -22.941885543242265 
2338 780 1 20.273510461137235 9.451962326134577 7.9030940979954 
2339 780 2 10.011341370573248 -13.94287102960671 10.772053683468577 
2340 780 1 -0.8127976885159356 -21.907230666959343 -16.76683401354572 
2341 781 1 16.781534592165976 -24.689774216329603 -7.525474475931272 
2342 781 2 22.227589932542585 14.335027365569474 -9.162148107663434 
2343 781 1 12.504125350733545 -26.247828953743745 25.80946690737781 
2344 782 1 -24.96692098090974 -21.344484535875893 24.59095393657207 
2345 782 2 -9.058205041284285 -3.4683471404132113 -23.45511328665166 
2346 782 1 -24.929031237897746 23.67722533968719 -16.332828996626844 
2347 783 1 -16.3239567279251 -8.505185334627079 14.729420362598084 
2348 783 2 -14.478826703385282 13.237809729805143 19.737378107370198 
2349 783 1 -22.159696239389064 19.9895879782986 9.70422950975378 
2350 784 1 -16.372000164097084 -8.354966320693485 23.58075616912395 
2351 784 2 14.151213377689231 5.81911044132481 20.352172992938996 
2352 784 1 -4.218755951752261 -4.494260266484503 -17.625902198460423 
2353 785 1 23.85800612756293 0.4322877033929764 -24.523036783719185 
2354 785 2 -17.301185304270167 -1.3270459056842192 -18.84929705747951 
2355 785 1 12.074662381424218 8.393431174270752 -17.208070028605757 
2356 786 1 3.680602564069602 11.152731631075149 8.87304644394316 
2357 786 2 -9.81950190041358 -13.962188195412477 -2.1652233259294604 
2358 786 1 -17.466990249978036 11.264821163723262 18.271584820233493 
2359 787 1 18.259948844133213 -20.311123744398174 -24.099425676134704 
2360 787 2 -9.13194249492696 13.523828310501088 3.3180520386740397 
2361 787 1 9.1780984328703 -20.9820154565394 -14.21797392075212 
2362 788 1 -24.444594872178495 -15.843427853305384 2.1865632693746306 
2363 788 2 5.573829162185831 11.423794650379456 9.003381885076735 
2364 788 1 8.14898489758015 -2.387818906433875 -15.467970907977698 
2365 789 1 1.112795710295174 6.415195009125171 -3.602849259704268 
2366 789 2 10.467539948006525 2.5927800540237484 5.598363809748051 
2367 789 1 25.427794340686603 2.746006983013231 26.495430756720808 
2368 790 1 16.20564612263835 6.059550401995651 23.59631240935935 
2369 790 2 -25.293999675178238 -2.5320355799431233 20.573197489834286 
2370 790 1 -13.034140711214807 -26.442098630097803 -21.71389196400973 
2371 791 1 -8.091068077664545 -15.673665276447638 7.852971514538638 
2372 791 2 -11.082819640622127 -20.09915689130798 2.8913053856063478 
2373 791 1 -6.117946490505048 4.017045606965937 9.176099806366786 
2374 792 1 -0.6884615185231375 20.763213191094465 6.824140014140845 
2375 792 2 -0.5092653181161637 6.144025056229502 -11.998829170226584 
2376 792 1 10.141100758831328 -20.36853170715356 7.617902870343066 
2377 793 1 20.33651301433109 9.650897256749538 -25.893688243394106 
2378 793 2 0.14920577390497414 1.7468027998346862 -6.0769688385296305 
2379 793 1 -12.814510076483195 7.501946881579713 9.649275592017396 
2380 794 1 16.295098415215378 -6.89636263481971 7.411704906455313 
2381 794 2 16.610878110360275 -24.317302206267087 -21.000468558937065 
2382 794 1 10.466428315722027 -0.27598883179013 19.73274181784022 
2383 795 1 -24.65954325440813 22.163678115882874 -0.05703578449090685 
2384 795 2 12.15325992064367 -10.334534054806571 -23.878721668097292 
2385 795 1 -20.63757863010252 2.653685948045773 14.110038392355548 
2386 796 1 7.508223459107626 8.840789968678507 25.16901852532449 
2387 796 2 20.086362902025172 -8.9011933974074 -26.627409691847532 
2388 796 1 -20.177321049375074 -6.31990855742994 19.913621826838693 
2389 797 1 -0.2418790947359568 -22.54059177470864 -0.8134931503274778 
2390 797 2 -8.976536525202626 14.796619993650332 13.980128399090084 
2391 797 1 17.233533797451166 19.73036108745606 -5.1891410266858 
2392 798 1 -26.1601192042086 -16.88729329502489 19.231607293408167 
2393 798 2 9.946137116831991 -25.916029504169373 10.553762784575333 
2394 798 1 7.417608073941963 4.524574927654545 17.246808008740224 
2395 799 1 16.974194613807533 -25.593627383260845 12.371504438021994 
2396 799 2 -8.218887575266358 6.758413582146616 4.310079119092258 
2397 799 1 9.28247128327098 18.53762176632452 -22.852757553364643 
2398 800 1 -17.651706579421706 2.9855666279254613 26.835882686712146 
2399 800 2 -24.412153698431577 -18.68723609173685 24.14785925667225 
2400 800 1 6.693310461313601 -3.9774804871806353 22.743121306436308 
2401 801 1 -25.978607976005353 20.61303377036362 -14.64513288961168 
2402 801 2 -5.188362765656425 17.65531348414259 -9.092374226585328 
2403 801 1 -8.322276049173649 10.24353616701108 -15.816970223006791 
2404 802 1 11.719997752762595 -23.471173929487826 -14.304793983214589 
2405 802 2 19.874694213779506 -9.022777529657397 -1.7512620526068048 
2406 802 1 -3.434390633311633 -11.650629388468001 9.394274078188232 
2407 803 1 -12.836268118333273 3.1755134591750362 10.070788940816293 
2408 803 2 25.85011541226411 -19.775104965152124 15.151581160808703 
2409 803 1 -12.89821457244327 -14.031530974689492 -21.419618532270952 
2410 804 1 -26.08208281629535 0.3349699029484512 15.110449452763703 
2411 804 2 10.88356006641542 8.306034945451358 -16.97635729868924 
2412 804 1 5.6695303138700694 11.05683683425407 -9.613154516636051 
2413 805 1 -2.8150433175653937 -26.217483999425696 -8.233524024124463 
2414 805 2 -3.1654642482281865 18.416180370524756 -1.317962092482901 
2415 805 1 19.21510284969245 -1.303448884092795 8.813861519412555 
2416 806 1 9.04824380244954 -18.459812461252803 15.87663725533097 
2417 806 2 -21.497595801936555 -4.484826727849942 5.789847192351942 
2418 806 1 21.7868156640251 -4.360430291083549 -11.471336326126838 
2419 807 1 15.847778645191951 11.037487526184705 -6.731928679111363 
2420 807 2 21.81029912157622 14.814959861554577 2.815053268680103 
2421 807 1 17.232581688129656 -15.693422450356994 24.058574151942054 
2422 808 1 18.388916367572165 12.345503588529098 0.92496539622406 
2423 808 2 1.4944050643516178 -24.816809557297287 2.2546081823526123 
2424 808 1 -16.960526695403814 15.25863530486319 3.3837349921216386 
2425 809 1 -13.071811795932145 -17.728935833965878 -1.1839999517088735 
2426 809 2 16.98416845692128 -21.226136385807912 26.54825766328495 
2427 809 1 6.5202140699963635 20.574547108588163 25.162242658614602 
2428 810 1 -24.301804716079985 5.108210300833477 -0.33216661794541125 
2429 810 2 -9.140520812690163 -9.156707948226405 9.483252695419665 
2430 810 1 -3.725658726985447 13.591049535571173 0.18931474971443407 
2431 811 1 -4.96289101189371 -9.133130893542546 -16.309586596428396 
2432 811 2 15.758039616530915 -25.13578312928183 -1.0266091280584746 
2433 811 1 -9.189529229027382 -15.676830012277044 19.502090095751612 
2434 812 1 -21.82622894253612 -16.084392126947005 11.856537182648246 
2435 812 2 -18.95315370043977 -5.629129923756672 -12.422621905021607 
2436 812 1 24.182720152316136 -26.195392717586387 -24.722672820566203 
2437 813 1 24.289490189223294 -18.607476323469683 -11.453262939450966 
2438 813 2 2.2552276786143075 -16.70671891412618 -0.7627361394668775 
2439 813 1 -17.26140041876937 8.296053431984397 23.447438579871324 
2440 814 1 -20.4270990749522 -9.048658692085048 -5.708436579520658 
2441 814 2 -8.129937889191421 11.861083853129564 17.046346997766797 
2442 814 1 -24.518353239100918 -25.362257517895006 20.099752372332155 
2443 815 1 -16.55761169371639 20.360666977355443 -8.00651365220385 
2444 815 2 17.561074632217064 -5.234831632812146 -7.32143192973075 
2445 815 1 -24.559785976016187 -17.25831743822848 -3.9336263806714946 
2446 816 1 0.45771099322222497 20.135307800281737 -24.234829855622053 
2447 816 2 -1.7381382903597213 1.3222895032260205 23.046794373373125 
2448 816 1 -16.59735471880603 11.175656810486636 -6.832513349475249 
2449 817 1 -4.70371352799631 13.744321541962506 -23.88903249369381 
2450 817 2 -23.402591086936336 22.93202119320984 -5.085517395273399 
2451 817 1 20.481813020989023 4.117103789935435 -17.57377612990124 
2452 818 1 -19.272942942411774 -24.378236662288746 -12.41786328822136 
2453 818 2 -13.187085884612227 -1.048492724192986 -25.426117370772943 
2454 818 1 10.032887611714806 24.389725664911545 -12.712769552324488 
2455 819 1 2.5541754791849804 -4.765287553684924 -20.06239993481141 
2456 819 2 -8.464993206568334 18.777674644723632 -5.537470331279938 
2457 819 1 20.87298092931986 8.335627702638163 -21.96973649309444 
2458 820 1 -3.6745430591980437 15.980816307106863 -26.089653753408722 
2459 820 2 1.7193436012223948 26.476204521421586 3.551976815435424 
2460 820 1 11.216511314991813 3.0558635201165743 -14.928785261519142 
2461 821 1 -8.395621353121506 14.579730516494202 -8.976297198498479 
2462 821 2 -2.2914277099842764 -12.287473632704558 3.2490927873738826 
2463 821 1 16.97907377702237 6.6050979239920835 -1.234386857794501 
2464 822 1 -10.12592748694372 4.462808950380012 13.192560787937225 
2465 822 2 -9.464159828393427 -23.049926809129705 -21.0032498136074 
2466 822 1 -4.47370240613774 -18.109811935739124 16.196272983696424 
2467 823 1 25.911096211971184 -15.926074895880316 24.543262871461778 
2468 823 2 -25.479898735856736 12.08654758579462 -9.482889257796309 
2469 823 1 -12.054327215012325 11.149701319323626 -4.876474541399247 
2470 824 1 10.343406914696203 17.289033516470823 -21.435553550598407 
2471 824 2 24.31051248886277 15.284447050409739 13.993406422233221 
2472 824 1 -13.712006213734655 -1.9976108677345437 -3.355635786003738 
2473 825 1 -8.225959233612752 4.462312637707228 13.84401159614039 
2474 825 2 5.807408577813206 18.312318793823714 -20.78954490909736 
2475 825 1 -26.66870266507472 25.51366490730473 21.346516041931174 
2476 826 1 -15.003533067782328 -10.456178080048648 15.488343322371335 
2477 826 2 19.931723551380635 14.571206254716849 16.665603804291557 
2478 826 1 -16.422524676102412 -14.456410662045618 -22.5594986226602 
2479 827 1 21.563917607041994 15.849170756457106 -13.06650650677876 
2480 827 2 -16.602385216038698 -17.503700389037192 -0.21171603751722756 
2481 827 1 -5.310988668320025 -25.5891142181392 -6.796455269398756 
2482 828 1 2.8050497382801396 23.347246691344438 -11.864589889284012 
2483 828 2 -15.192751556697782 -22.218883450263814 -21.04413298147128 
2484 828 1 -4.823890105585207 21.859638567440314 1.198390324784203 
2485 829 1 -25.780408982916466 -5.1717207558224025 -5.627981554076332 
2486 829 2 16.289524530431088 -6.105322529157519 -26.47173771978343 
2487 829 1 0.9660674609076949 20.023679692375502 -17.889738113451155 
2488 830 1 4.715474716116457 7.712056570579932 -3.5154402603067503 
2489 830 2 22.514403917653524 24.94717583823919 22.500687020713187 
2490 830 1 -21.92649113346481 19.225720826447784 -11.105828394842336 
2491 831 1 -9.054466460194217 -3.14294386172946 11.107613072742787 
2492 831 2 24.122611232228657 18.912203507233485 -3.762887223486274 
2493 831 1 -24.811473661798207 26.93666651689645 -23.268231080794898 
2494 832 1 10.918245131866847 0.7616424524063667 4.024588035385399 
2495 832 2 -15.847415361526007 -1.6868700889668027 -7.82559677794319 
2496 832 1 3.2452684145066257 19.945144001775915 5.450868710872278 
2497 833 1 -1.0037056099452215 22.61658733953921 -19.060081863848264 
2498 833 2 -16.28552561045622 17.541796969225025 11.222742332145302 
2499 833 1 5.657724291777328 -17.179739807008552 -20.89762349763099 
2500 834 1 -9.68264801082092 9.433319973006284 -7.806312872473843 
2501 834 2 -15.136670032390862 -6.266450642682084 24.57422787860822 
2502 834 1 -16.690330581029734 26.81651368914705 11.876908758321434 
2503 835 1 9.067760480323614 25.795798923847364 -24.89678399057275 
2504 835 2 19.806262666566973 -4.615617611421509 9.275079796149058 
2505 835 1 -12.184649083702908 4.746945381874667 12.49481733350752 
2506 836 1 -14.583967508562512 -17.011017152565366 -8.604158279004295 
2507 836 2 -19.860849138312297 -5.739325003320399 -14.169340460283703 
2508 836 1 15.018028710557104 15.51492970031201 -8.062041243988926 
2509 837 1 4.3893356073132 20.16750406243935 18.936055172904027 
2510 837 2 24.537774090056715 4.98810468076325 16.953422457188815 
2511 837 1 -12.995268861158637 -0.9941491905814352 24.884515174719326 
2512 838 1 18.077146046383206 11.098202404668605 -17.962282953546932 
2513 838 2 -20.67286378404207 1.7689435040159118 26.200862438212965 
2514 838 1 10.272772589824818 -9.205270669703449 2.748019440275101 
2515 839 1 10.88586156924272 15.453126832671288 1.8686450647367572 
2516 839 2 -25.97806651601658 -19.127639232416 -2.846969873980207 
2517 839 1 21.081921873740853 26.89120493328651 2.2483991005863295 
2518 840 1 14.200881320155247 20.553844330669058 -20.20691713395967 
2519 840 2 16.547949457892663 22.500270173761074 0.17628357080480583 
2520 840 1 18.179276331806044 -26.347734426131506 -1.4487422458074874 
2521 841 1 -20.632354262538794 -12.579388321548116 0.6549151938990363 
2522 841 2 8.327896713794033 7.369851623162106 -26.602055547591235 
2523 841 1 10.256892809038732 17.93979198914161 -19.367482990071863 
2524 842 1 -9.24329050416559 24.26424255195662 16.422090133900326 
2525 842 2 0.1092239553858434 -25.207594260179185 15.885709368659143 
2526 842 1 -23.38162884746575 -6.199544436720544 18.632349652787582 
2527 843 1 -26.882444220395215 15.317493125943805 17.37224786842829 
2528 843 2 17.319763866965367 -8.025145994629316 -2.0445824513743176 
2529 843 1 1.4318264913758867 15.800848531517111 -18.17741977089281 
2530 844 1 -13.123787232153362 26.22058947883022 2.1543455230168114 
2531 844 2 0.13657207900309842 -23.301052284607696 -11.282711993436322 
2532 844 1 0.3205528088227112 -24.97171365246277 -13.724292366872984 
2533 845 1 26.955550426591543 -26.148350225830427 3.925001232077058 
2534 845 2 -2.456714843284743 -5.504949792346803 3.2919390671034243 
2535 845 1 -6.58549140941609 21.40697354836513 -2.7970538752671104 
2536 846 1 22.547380872312388 17.17124709372824 7.807079667959172 
2537 846 2 -23.233976322065683 26.008507658882635 -17.110133891988973 
2538 846 1 26.971372207664622 -12.66334936331708 0.6492660534797601 
2539 847 1 -26.694635239343636 -14.725830327264617 1.2514629525707974 
2540 847 2 -14.654722883551365 18.011573177843708 14.172487650968122 
2541 847 1 4.379414557257526 -9.859515478394027 -23.748190899552718 
2542 848 1 -25.557950569171545 14.91217843341127 -11.384968356130498 
2543 848 2 9.34856176693468 15.827335716424656 -4.296268351437597 
2544 848 1 -24.976661167854918 -19.730797667301633 9.754724104627314 
2545 849 1 -25.433597272172257 14.922970301097202 0.2868621483191376 
2546 849 2 16.25901037538346 9.911899100801278 -26.04188463146946 
2547 849 1 11.598543635383443 -15.608369079877777 -22.002960890398644 
2548 850 1 -25.960736273321164 22.013475920815353 -1.552729216096541 
2549 850 2 10.523293010265377 -20.995601022347635 23.434944366556266 
2550 850 1 8.439403171809666 -14.117746626649506 14.769680025856111 
2551 851 1 -8.17739757883734 -1.5656490470853406 -10.574017790170497 
2552 851 2 6.260201317696222 12.83878735564079 11.661147490949439 
2553 851 1 18.772554413235127 16.69356254466372 -2.7830435050945646 
2554 852 1 -14.178923487060569 -13.26526028455935 24.630626910577078 
2555 852 2 -10.351339897586744 6.939042665833014 16.32902549869774 
2556 852 1 -17.354491949487272 19.76285136130481 7.6632056583692645 
2557 853 1 9.686259509575173 -0.6863444395070637 24.101965611590025 
2558 853 2 -15.964275075963807 -25.79059159307625 26.13142502825417 
2559 853 1 12.225627901345895 16.45998782025093 23.83846860036971 
2560 854 1 9.051484113216567 21.993189040210233 -16.77025460172874 
2561 854 2 18.02501949184034 -12.424944644178282 -11.152937219149706 
2562 854 1 -13.756098229546279 15.186513373059412 20.778502126710386 
2563 855 1 -0.5550672198236626 -9.396394755776477 7.509205405693919 
2564 855 2 4.796237029783033 -1.3896812221452848 17.6396754383656 
2565 855 1 -19.03892912731697 -26.329573114748353 -21.121198162600358 
2566 856 1 -16.874333658740632 -25.707532712762063 -11.729865448723567 
2567 856 2 -22.42357356370077 -4.509418791081618 -6.338399479091102 
2568 856 1 -24.80023931980797 13.105087456508116 -15.683134182544247 
2569 857 1 20.492534613303214 -1.4087399797837534 -8.907732983626971 
2570 857 2 -10.847125142752507 -26.764723295244373 -7.372528912181963 
2571 857 1 21.711475671017034 -9.694125950218151 23.404926965236307 
2572 858 1 -18.840685934115015 -6.931820601560066 -2.2375950861195406 
2573 858 2 -3.6420484647856526 -0.6205570741291453 -22.129877714895628 
2574 858 1 -8.985729468043225 -7.903162907477753 16.348282563646123 
2575 859 1 -14.520000695231571 -10.821080543459317 2.0878459641373084 
2576 859 2 -14.589350752460154 23.08075050052014 26.073066380520906 
2577 859 1 -10.51370304228302 -6.386842521959249 -0.8517216811358992 
2578 860 1 5.832367207444037 -22.18406801662849 19.059124708184193 
2579 860 2 -8.106367421630285 -9.652046326580422 13.133562014693254 
2580 860 1 -7.660064538053778 16.582427997765812 18.364696507268775 
2581 861 1 4.754810785018158 7.954318839329595 21.033403243126905 
2582 861 2 -26.794594885215343 -23.198752036922034 -1.1721529790948608 
2583 861 1 8.173891780466803 7.81412449430556 0.6597140186520889 
2584 862 1 17.612976389200846 19.478762120334792 -20.800369608705005 
2585 862 2 -8.374086519764035 -23.256839130888416 -2.298277593369665 
2586 862 1 -6.992336385856518 22.585185440821682 15.574825500912965 
2587 863 1 20.08186562285261 -9.06733458944558 21.942387669478016 
2588 863 2 -12.235507525322124 26.455653386228896 13.587301838303802 
2589 863 1 -24.36235486617434 12.760598524304086 -17.063126372163012 
2590 864 1 10.44205028462273 -22.762110275283028 16.26951182553929 
2591 864 2 6.806492933809274 -16.96809418523459 18.43245949449829 
2592 864 1 -7.159440515723972 0.9613412908411334 22.50073117094049 
2593 865 1 -17.300680271687526 -24.719845643033178 2.7887984994519215 
2594 865 2 -3.5140828479501813 13.017445842258297 19.347839127597275 
2595 865 1 -11.875021357336284 -19.38765088851585 -20.982880623154145 
2596 866 1 -15.808458948218291 -7.396913001054294 -24.58129437799513 
2597 866 2 22.255063324741855 -7.359874652596819 22.100747022538364 
2598 866 1 0.44073672660692864 -4.116742098083755 -0.15829240989266324 
2599 867 1 -5.823874320977204 -10.730122216035113 25.89067485228435 
2600 867 2 -16.29967864368888 -24.05066050613638 18.3424487007455 
2601 867 1 -15.757084056201453 -11.61313232983439 -1.3580269452570661 
2602 868 1 14.176004220764199 -1.2934956673580373 -3.904264888749104 
2603 868 2 20.916750948945946 -24.321571629859758 -22.103988694973626 
2604 868 1 -16.898278675390095 8.746893422242756 16.06601352273516 
2605 869 1 26.53056147570947 -6.476545108064009 -15.531039728750615 
2606 869 2 8.683902613008655 9.421269701485414 9.437216668833251 
2607 869 1 -13.138645492483567 -22.03216775269403 -26.35628371996967 
2608 870 1 9.258851315496074 -13.766391800634436 4.454979572650242 
2609 870 2 15.19451492702676 -5.551524320374426 -21.308649653317886 
2610 870 1 -25.56399174919611 -10.09471352616739 -7.6522454939766575 
2611 871 1 -10.092116751477512 -10.260829711065693 1.8084213778907134 
2612 871 2 -8.644303935554824 -15.639348107585285 -13.375223908072005 
2613 871 1 -26.613430424930787 24.577488734532793 12.007887980636212 
2614 872 1 -19.546381850936527 -7.571090046091733 16.27254510606369 
2615 872 2 9.306474125819975 4.4468414005348365 -18.352315047971043 
2616 872 1 -2.1447890957762894 -16.925660572347425 -11.744045676342575 
2617 873 1 -19.363356279309173 -20.530269967503294 8.99625957909823 
2618 873 2 -20.822168553066867 -12.766208553480391 10.048885276601077 
2619 873 1 19.66053491722751 -24.344076603180035 -11.786777624381727 
2620 874 1 -20.464129740526406 16.451068527259594 9.603673220653477 
2621 874 2 -15.054447932614359 -15.218904080275568 -11.35180402919587 
2622 874 1 -9.165171592550582 -8.732476851731523 -26.270814734801743 
2623 875 1 -0.9221007267979431 19.11603256306931 -9.048021743692658 
2624 875 2 7.672321615736834 26.763457328699005 25.566730429307405 
2625 875 1 22.525555013125036 -16.211188284864065 -0.01178850741140991 
2626 876 1 15.7706658518156 -0.03831234529645755 8.639660002929133 
2627 876 2 24.599777672529648 -4.447630403234523 19.957214800864037 
2628 876 1 -7.6571605868782875 -1.532059701485661 -21.57703514638181 
2629 877 1 26.892199357113725 -24.013146095705032 7.139682988763894 
2630 877 2 25.540115328238635 -3.4553814857597445 22.446747174563072 
2631 877 1 -9.69552492192092 9.185225969092343 -23.825213717308568 
2632 878 1 10.71457257233191 -8.49347948561864 -23.31227175079704 
2633 878 2 -26.66382437836193 -24.224533983735103 20.507043137281073 
2634 878 1 17.443471299129165 -22.1372339162684 -14.880279180019443 
2635 879 1 -5.186887859537862 6.468311089484743 -24.62230208969218 
2636 879 2 -3.7165951889682205 25.807937680730305 -12.536463573209954 
2637 879 1 -11.097971347108476 -24.707166682469957 9.407338648720327 
2638 880 1 3.632600477883507 -17.21803910435441 16.070422682118007 
2639 880 2 -0.23078224206912523 -2.211097954711139 26.8682056428842 
2640 880 1 -6.60254973334732 -21.082436696042063 -1.06882257672288 
2641 881 1 10.22827049961652 2.865383816475582 22.383253135649355 
2642 881 2 17.026703428816937 20.710088736090768 -15.949968870279266 
2643 881 1 -9.288908380773808 10.436344142103309 -8.311584106446524 
2644 882 1 -5.620476478093515 -19.16163868292471 17.448720991878638 
2645 882 2 -11.33699224345209 10.06948166913007 -8.31156207167983 
2646 882 1 13.468685599340027 -5.639770797751048 -9.343405584731439 
2647 883 1 -5.056627844804435 -20.42185265172205 16.447373714842698 
2648 883 2 -26.875740794340192 -0.6833346165333971 15.365528726093785 
2649 883 1 -7.863862736587336 10.66760053605892 12.575265274782424 
2650 884 1 11.949654214079132 14.202846402100661 -17.69298716863507 
2651 884 2 3.575115082491017 7.669569129453983 -14.90918959540746 
2652 884 1 14.87816828255 3.4877394998440714 8.16937850834912 
2653 885 1 -2.9252838377751296 9.413858018004646 22.658986902972472 
2654 885 2 -6.208055205227065 -6.662094908927564 13.83640762373222 
2655 885 1 -8.029780425704079 -26.862250464598098 -0.698600088117427 
2656 886 1 3.401122839004117 15.110343690280956 -2.2517182260521764 
2657 886 2 -26.921907542273747 -20.849827013085132 -16.91522490093694 
2658 886 1 9.476840514455766 -15.874929646283611 12.45404338232283 
2659 887 1 4.352663952695323 -19.946615624284355 -21.157915492328687 
2660 887 2 11.191538189067174 25.447136626648593 -12.825280409568503 
2661 887 1 -7.045414313417776 26.35240562915329 -13.008705466537263 
2662 888 1 -25.101215279372123 -25.965577048907583 -11.655743432385192 
2663 888 2 1.0275657358372676 1.4541382369627627 20.84510535202069 
2664 888 1 10.02554452106417 24.382857403505305 8.480093198305738 
2665 889 1 -23.053899128858273 -19.70987995394033 4.262299272332612 
2666 889 2 9.127326176319542 -10.333056267279968 21.80709867158056 
2667 889 1 -16.84737181159621 -17.728723350060505 5.606824755168489 
2668 890 1 -11.830701089329706 18.038197432264106 -25.73433198738791 
2669 890 2 -0.8962531148500261 -19.978532547246633 5.1457244061808325 
2670 890 1 -24.949646036058667 -4.429712640216248 10.074294342755074 
2671 891 1 -9.795130764168814 23.623423480009052 25.14046325906996 
2672 891 2 16.093259877887803 -25.768686658412484 3.8971233604693154 
2673 891 1 -8.051158045153596 2.561034891141727 24.996964545893235 
2674 892 1 19.172223825490377 -8.767169717949692 14.235881228691568 
2675 892 2 12.072341947623002 1.3353929391794779 2.7537030274351793 
2676 892 1 -18.75180137208236 -21.557841419371126 12.356720344187025 
2677 893 1 1.5809311744761203 16.742342094648336 -26.334595983633545 
2678 893 2 -17.904007242921345 -19.852513619759723 9.22984670748771 
2679 893 1 13.82014433696635 15.77824159903539 -9.041056161685471 
2680 894 1 3.6537297473475476 14.845179759585946 2.330330787755468 
2681 894 2 -12.275386298633691 -16.720965456345873 12.208682533926066 
2682 894 1 -23.802343996842822 -21.395738997646525 -23.161082107377517 
2683 895 1 10.109895681180305 5.698779868464179 -17.32803643597483 
2684 895 2 17.098945275386257 25.53573565365086 24.615999320759414 
2685 895 1 8.28073137281234 10.634596169954762 17.505900784764236 
2686 896 1 -8.005848410925193 -22.00378993079138 14.491407376082194 
2687 896 2 -16.050020002367486 -4.755592040727091 6.171438439126149 
2688 896 1 5.212685375111029 19.454297566627886 -3.0051084017936205 
2689 897 1 11.55992121612612 24.165589145188434 15.826290344782613 
2690 897 2 -15.744601920111345 -25.22448320549627 5.0542390418035765 
2691 897 1 -21.038511335317494 -10.654808169856214 19.450339502190197 
2692 898 1 -19.240637871144386 -20.329289890614838 4.584343771396515 
2693 898 2 10.289745506802035 -23.761217329156374 -2.0355321661159067 
2694 898 1 25.242254734944503 11.972177341083992 25.234038939857925 
2695 899 1 -3.833945666292294 9.821261584351483 17.03416956427121 
2696 899 2 -0.7093522803147287 -20.707283139641696 -0.9826885205234781 
2697 899 1 -23.11283334336217 -7.337116691741091 -17.69617967869071 
2698 900 1 -12.422516059370288 -9.439824489630144 3.8437000703239335 
2699 900 2 7.115957015115747 20.937213696513084 -16.474658271170362 
2700 900 1 -3.8454758793389523 20.95451837555548 14.88585620251611 
2701 901 1 3.2513446686190903 -20.994005954959007 11.163064907624857 
2702 901 2 -20.44668582628711 7.073674362969548 -1.667965472838432 
2703 901 1 -0.6599659629284069 -10.124242842131892 -5.49988876139772 
2704 902 1 -16.711061767565567 -6.2109760508610705 -12.851390030259482 
2705 902 2 -9.137103391984425 -26.682352944724855 17.92942429883709 
2706 902 1 1.1367697922611768 20.814932112188366 19.185074837513454 
2707 903 1 21.472514763475218 19.070259687676277 19.272879896005612 
2708 903 2 11.185920992951893 0.9425608693301513 -6.064022987968237 
2709 903 1 0.8010217129692627 -4.620784718830471 -24.87364851153895 
2710 904 1 -21.90363911152216 -22.49675983028623 19.125957650434906 
2711 904 2 -8.569172486129439 -25.320514210928632 17.33871584134006 
2712 904 1 9.685474754255594 -6.552856586845895 -10.29955327378191 
2713 905 1 -23.79541933623165 13.454357449489628 -25.642458617898072 
2714 905 2 15.991043152724863 6.047751560699844 -19.350071678819045 
2715 905 1 -10.729057304137086 20.361592936058834 7.0631602618307525 
2716 906 1 -4.760729779382231 -24.33286207596108 -2.5912195796675057 
2717 906 2 -3.3741463431837992 -19.691736279039418 -9.66987985142395 
2718 906 1 20.131411408891978 26.656223089968712 20.661300972288537 
2719 907 1 6.219789750204896 -25.528435354576654 -7.802244611119637 
2720 907 2 -1.2345059119266715 -19.692624069427985 -26.97867615652221 
2721 907 1 -16.339353812736924 14.334595861378027 -15.723483436620851 
2722 908 1 4.775564439422677 21.59340301809023 -4.615973910466337 
2723 908 2 -4.291756114363022 -1.2694984594733825 25.302199418119663 
2724 908 1 -26.69948538596469 22.871414080571917 9.105930913084734 
2725 909 1 -7.258724311881597 -7.7313653324707445 20.146682408893355 
2726 909 2 11.0340711003386 -11.81023120781228 14.808959662122895 
2727 909 1 6.742152419676529 -18.97764032860373 -22.832906064520422 
2728 910 1 15.417144962901808 -5.405236214137435 -3.337128902265274 
2729 910 2 5.22151143408081 25.93205505103257 -18.709753507230232 
2730 910 1 2.4064618715109205 19.566300964764196 5.213439346277568 
2731 911 1 16.757655779473495 -0.10246717827593699 -2.6974858307350473 
2732 911 2 -20.454500397890666 -17.736754722691224 11.456587509625713 
2733 911 1 -1.1300219776912535 26.502319342698613 0.3306219152966712 
2734 912 1 6.456335438466795 -23.479897410960533 -20.283981796998596 
2735 912 2 19.038470584660203 17.096933552740182 -23.327156680397504 
2736 912 1 -18.235741472383552 -6.756233796342308 5.815756306715208 
2737 913 1 24.176732471203437 -22.110413046078563 -6.417469308254802 
2738 913 2 -13.43326728561582 -23.196893114442585 -15.749229335073721 
2739 913 1 20.814013905987096 17.52624789552496 -20.63669909672432 
2740 914 1 19.277677617820295 13.839729867314382 -3.4121933485423064 
2741 914 2 19.560399661541823 -14.76179427315254 -19.449408997477327 
2742 914 1 -1.5572086357799506 -11.746071920522787 23.47815715075275 
2743 915 1 18.758088285085194 -21.171043952029898 -7.298007966279435 
2744 915 2 -18.06466900317973 -12.60732017552849 -13.973022552014832 
2745 915 1 22.35969958346363 14.778731033604473 10.724760386019696 
2746 916 1 -21.977085222007986 -4.707023002990418 -8.603169680984855 
2747 916 2 18.403114073101285 16.024060489621405 3.257556630266812 
2748 916 1 7.976604801396469 -5.88273208471734 -8.451423548305492 
2749 917 1 -19.312007996156314 -6.140482120803892 8.757512320211774 
2750 917 2 -2.2079793943623294 -20.798526051982865 -9.499568167782694 
2751 917 1 -1.8807922398032808 5.139999099198143 8.553096698908021 
2752 918 1 -13.251475824195095 -16.481030728901327 17.636888702836067 
2753 918 2 3.4618499132504184 0.8538144308401883 19.82387018010806 
2754 918 1 17.76965269233407 -7.694220416355154 -24.014953823172036 
2755 919 1 24.34920898530399 23.889717434777545 -11.812529170413715 
2756 919 2 26.737646945241515 15.238683386080716 13.833972679798926 
2757 919 1 -23.823227406660227 -20.542955130446234 22.771291029770353 
2758 920 1 -23.581756053651645 -9.422174083710434 6.462054338418206 
2759 920 2 -20.278879885924482 19.115184102648506 -2.529188803767159 
2760 920 1 9.426943803040182 -10.55605114846929 19.610682652119237 
2761 921 1 -12.144992323066992 14.6980362187266 20.303692228841555 
2762 921 2 7.131388392915852 -26.943288297777706 11.707318691810123 
2763 921 1 13.274703846722389 23.500881098361035 -1.0528867325653266 
2764 922 1 -14.193132984530285 4.109018512211129 20.3180329703875 
2765 922 2 -17.01262537109023 26.542798890322544 -5.191051953427717 
2766 922 1 0.23098977164147527 25.541238775651564 -24.162416447622547 
2767 923 1 12.840574547394347 25.87078375508184 -7.038208533694295 
2768 923 2 13.482526386780812 19.44843934149995 0.6874930283108505 
2769 923 1 12.854342634413968 -18.86315167638962 1.9311316323716952 
2770 924 1 -11.047411085833488 -3.5793741278584363 12.640131547835814 
2771 924 2 19.883212238237178 -3.708886469663735 3.528697893152554 
2772 924 1 25.83996945727869 -15.606774337780966 13.88341060959479 
2773 925 1 -1.1668643100288278 9.487584264190197 -8.587813134516892 
2774 925 2 26.21109362191907 10.073588381678633 -14.043957564462762 
2775 925 1 14.835064383654874 13.806347118700657 -25.53051589877026 
2776 926 1 -8.460904104544436 1.8920094494909705 -1.0933559770103365 
2777 926 2 -10.024617403289241 -15.631502400584493 18.68572693398059 
2778 926 1 23.27532766490259 -18.539461495679564 -21.558341594672786 
2779 927 1 6.911039216669373 -3.3883228302431156 0.4423387771537506 
2780 927 2 22.850557292925167 -16.207618340771432 -8.092601464281824 
2781 927 1 5.095135293646045 12.535990745643659 16.42612132524207 
2782 928 1 -1.1410254056715843 15.886977048982416 18.00030434843537 
2783 928 2 -26.61641373831827 21.308016502389812 -22.761668463339824 
2784 928 1 7.81058195289291 -13.568699429386253 -8.673309419329058 
2785 929 1 -20.633618146761286 3.8425796881651664 -22.205474279456332 
2786 929 2 -21.347382519672273 5.070278372396892 -15.25836069097322 
2787 929 1 -10.053770390572822 16.864776146546482 13.813109502335543 
2788 930 1 25.59683414843208 19.151969516225684 -16.28187196408853 
2789 930 2 -1.8687152421070046 -15.07730475133695 -18.987368548900463 
2790 930 1 -11.868472459790505 -2.482727268270594 21.914268785267602 
2791 931 1 -0.962570648931095 -0.6220951314939072 -19.09303800895754 
2792 931 2 -1.7199005343935951 9.290148610650505 13.951838447306528 
2793 931 1 21.862992945631298 -23.161772866926796 -22.82564788382195 
2794 932 1 20.693104095175727 -17.90021153785346 21.21153836101221 
2795 932 2 -6.123522392248304 -5.430188578123303 24.862465199399715 
2796 932 1 17.921693319459322 -16.830903682551813 -22.062687135873897 
2797 933 1 19.319002704318947 7.972200842009727 13.134947220678065 
2798 933 2 -26.28909594009169 1.426589278744725 -7.251935982222722 
2799 933 1 -17.36890529675337 -17.944673913168224 1.0029944613966286 
2800 934 1 -12.817364925513603 19.027856779091834 -14.421550369617536 
2801 934 2 -7.369251388784257 -0.7277361035247871 -19.681742697609835 
2802 934 1 -5.159025450017744 9.04849653987852 -11.34241416571928 
2803 935 1 -6.772241766303356 -12.116374553890305 25.688210315215187 
2804 935 2 26.571560878121247 -4.017971011709086 7.203713578147422 
2805 935 1 -18.883704024161702 2.270863312563616 23.75475523716156 
2806 936 1 0.8516768731098345 -24.120448199762947 -23.64743820943416 
2807 936 2 21.013560955493617 -17.990276908611072 -10.891050301218687 
2808 936 1 25.742060276131724 4.370103415435182 -14.752090042421893 
2809 937 1 3.7908858246669226 21.079257805660774 -11.297367425979008 
2810 937 2 26.338497889472094 14.390142612438027 24.745301522574678 
2811 937 1 2.582702219883892 14.882785050574924 -16.76320190382006 
2812 938 1 10.07360151761089 -23.272297744708446 17.45927940558267 
2813 938 2 -13.012120975916345 8.285260572736199 13.066476852976379 
2814 938 1 0.05090611467735684 -9.56631558247215 -12.988097716925473 
2815 939 1 8.242649542622274 -22.414856418260662 8.414305702851287 
2816 939 2 -13.9787136282977 18.097230862667026 -2.1546775121558 
2817 939 1 1.6093718767556702 -0.45954580759108055 -10.7645921969347 
2818 940 1 -4.277494999093317 26.42042829143302 0.6529021875098948 
2819 940 2 2.4388478872525354 -10.305777935801018 -12.14462877724165 
2820 940 1 16.710126552089562 -8.78136989863544 25.428399745591207 
2821 941 1 -22.315721927838425 16.373396744409455 20.35233737118528 
2822 941 2 -0.5180166912387669 21.857302726411326 -8.460546621637036 
2823 941 1 -23.250226515862575 12.345531568880759 -20.67969196952275 
2824 942 1 25.747808072764848 -3.0509513487649897 -2.071828116224321 
2825 942 2 23.09656936975685 24.319551185053918 -18.01209417434992 
2826 942 1 -9.970346045807549 -20.805623454950965 7.717657282244154 
2827 943 1 -8.879822343924886 25.772985361260844 -0.3546456418730912 
2828 943 2 2.6676043095580297 23.173418711110052 -17.60812835077936 
2829 943 1 2.141163175348428 -15.501260604060793 -15.74586447125202 
2830 944 1 -5.9167148406840475 21.268208179692607 11.333383271534835 
2831 944 2 13.28218446765785 -2.1205773568513173 -1.3827131667591281 
2832 944 1 17.954307678378186 -21.370586457494547 -9.884172273369607 
2833 945 1 -1.0235294144531437 -16.34913626954357 -4.002404519230527 
2834 945 2 3.910345483824152 -14.936675476793768 -11.650430638113757 
2835 945 1 25.7910889317819 15.947502919259485 24.54917105604332 
2836 946 1 3.8718905593149557 -12.337805675459474 -8.652039490614666 
2837 946 2 12.64563909706888 -20.956396486819134 7.640406261798134 
2838 946 1 4.234971424283671 16.97598276919591 25.04227029686941 
2839 947 1 19.669326850904895 -8.171983243313665 17.654750563610698 
2840 947 2 17.111914155990412 -23.960306085981298 -2.898305172791993 
2841 947 1 -21.440847698999328 -13.325299560603243 26.220882907696847 
2842 948 1 14.243138720520761 7.396271778300914 4.367810818050252 
2843 948 2 18.085236011357054 0.4428219204491519 2.1836058163615206 
2844 948 1 15.873995961145106 -3.287464947607205 9.01632927499191 
2845 949 1 -17.79664253101491 21.36257118948516 -14.570979185805438 
2846 949 2 -4.0172555889202215 5.804160144747698 23.29890313352505 
2847 949 1 -7.075278945094965 -22.140077769064266 9.200397475217734 
2848 950 1 -11.827252731840467 14.637668673409912 22.810398750847227 
2849 950 2 -5.768486010649347 26.7450157188933 10.851400306357611 
2850 950 1 -15.33753120823811 22.90407678773736 13.036652764246774 
2851 951 1 21.572805392364657 13.19510124471126 -24.387059154159413 
2852 951 2 0.04542125642381123 -26.366888857781483 10.809238223576422 
2853 951 1 23.909256447419537 3.5183419586918028 -0.04333155719304571 
2854 952 1 -15.226860550342785 9.915289199957805 7.882709046957359 
2855 952 2 -20.584844425610815 16.587695417901266 1.8618802533713783 
2856 952 1 -7.6460044129046345 -8.600397170885625 -15.17783020052234 
2857 953 1 18.58782829172622 -19.36238041329196 -7.740082837527925 
2858 953 2 13.53279301500995 9.325253902349374 -2.826102439856353 
2859 953 1 -8.467396464412225 1.1973066865173791 22.569520657865972 
2860 954 1 -16.06739754778917 -19.811877488278018 14.801209265267666 
2861 954 2 -23.971508235924336 -5.40486187543295 -2.682413142736557 
2862 954 1 1.8972801902789023 -17.143551030784124 -11.020971702143228 
2863 955 1 8.987321719696574 17.24819784072269 9.834731580378048 
2864 955 2 -19.70039688938969 -7.61388333211211 4.7043417351908055 
2865 955 1 11.16983450960663 12.865740145636892 -12.832082587611085 
2866 956 1 -5.7636035782034725 -0.498696940506683 22.133644032292473 
2867 956 2 -19.1371802460529 -25.395892342370164 4.099574094393844 
2868 956 1 -14.248416699232532 -22.062086116756017 5.2883494287930475 
2869 957 1 18.04036859409627 -6.268160950199004 20.828264918975997 
2870 957 2 8.279011442810493 -22.798903863104385 3.7599246246477946 
2871 957 1 -14.23974573996408 -9.46295051983737 -24.427820977358806 
2872 958 1 6.027880075188996 -14.517002507241594 22.136530455634094 
2873 958 2 -4.259273135781736 21.63742315043607 2.3394432744591747 
2874 958 1 12.969811350173998 -8.191569462359297 -1.7637537444705806 
2875 959 1 10.928637462192505 -4.568517430420346 -4.022776159479328 
2876 959 2 -15.476490067309896 -2.5682268063787355 4.31175551193482 
2877 959 1 14.212054007134007 12.45138911398709 0.18550432672968498 
2878 960 1 9.560116474796644 -6.647117916444806 -24.80324887981283 
2879 960 2 -5.571395369606801 14.876350965682462 -3.647809195854748 
2880 960 1 25.918413702858466 17.778375378698207 -12.455184494172016 
2881 961 1 7.141156189344585 -22.907028827379612 25.80313602328289 
2882 961 2 25.172327062119415 -14.29017896616313 -23.943429818255062 
2883 961 1 8.47885221722548 -24.269767449524878 4.807756265584928 
2884 962 1 -12.927816634777292 12.29584296210141 24.32559515962943 
2885 962 2 9.987954348691822 11.087194036669032 -16.69079774684004 
2886 962 1 -18.797429024380133 5.223872181151201 -2.8151438621877247 
2887 963 1 13.663559416180554 -14.24442446370756 -7.989089294012299 
2888 963 2 25.05546842309095 -22.637715155792158 -0.10289997302403009 
2889 963 1 21.43470669071842 -21.77042605192452 13.086478059648911 
2890 964 1 20.60509783491193 24.075207219555452 24.454319221091055 
2891 964 2 -4.606499406879774 19.517499300156175 24.34916197114505 
2892 964 1 -24.221674058825847 -4.657986349258504 23.10447503139354 
2893 965 1 -3.3013574966895796 26.726487480074212 -22.71594258108756 
2894 965 2 1.0728016692351687 1.6892638005740856 -18.485535000807857 
2895 965 1 11.5760176975065 8.095449260488962 -1.8633900439109397 
2896 966 1 10.429256519559232 -14.0638823579079 2.708290883302041 
2897 966 2 -7.058728522093915 -11.309449695222236 26.99696592728759 
2898 966 1 19.174321770731552 -22.463829954864572 10.116454655948502 
2899 967 1 -9.683058713791226 17.359759376717356 -15.32852136369997 
2900 967 2 5.9283349594049355 21.205871961607826 13.140753795084024 
2901 967 1 26.83893490710699 -23.72716701157816 18.228996085896057 
2902 968 1 -25.77390148443652 -18.415293282652442 -23.18505622674499 
2903 968 2 6.964673653703905 -2.1027204804071182 -10.399150934097197 
2904 968 1 9.167482342146698 20.445658309465095 -22.338910746884764 
2905 969 1 -11.98908776706672 17.40413792800721 26.28975186749522 
2906 969 2 -7.2941183713453555 2.9800825049257327 -23.12496382861041 
2907 969 1 4.46700184798787 -7.607069763754545 -5.392263043515776 
2908 970 1 13.142984192974218 -9.46403674823513 -5.892122809663725 
2909 970 2 7.004917006783117 -13.207078869072118 -3.9626531461466925 
2910 970 1 10.14639283259121 -3.2144605448833516 24.268585513362048 
2911 971 1 -5.841753988429957 19.32824268862141 -22.770328905628567 
2912 971 2 -1.6972397207703231 15.221133790073779 3.9900336784375874 
2913 971 1 21.42513692908996 4.311636537063919 13.961921772613238 
2914 972 1 13.124811785350786 11.594697563496155 -26.159043883513007 
2915 972 2 -13.345767724128418 -22.1058173708951 -2.1850962783115833 
2916 972 1 3.3960340938327533 5.936165749517443 -20.990889599992087 
2917 973 1 -23.974771341547 -12.26693831324596 -1.0556321169018794 
2918 973 2 -6.12895118871166 4.550869157176088 19.569028731438813 
2919 973 1 6.330939274309692 2.503767707615914 5.080723435465963 
2920 974 1 -16.834848519098223 -14.539839323148506 -1.1031450309229065 
2921 974 2 17.872662106503547 16.64716624672895 -9.05771331716884 
2922 974 1 25.450515394390493 -1.4126133612524328 -4.494895293062971 
2923 975 1 24.37999554894546 -15.960455258626471 -26.2911357599763 
2924 975 2 -6.376609067383939 9.060812787123027 8.492601679677563 
2925 975 1 -15.260833500711465 -25.449323900010217 -11.340657683355753 
2926 976 1 -4.3767425795106725 1.8899321930635757 -26.8830885913582 
2927 976 2 19.41353194248915 24.888527291174263 25.46718489759583 
2928 976 1 -1.1336922476995746 -4.603593653183392 10.525211705120817 
2929 977 1 13.338745106102849 0.9833750877493763 -16.888987059936063 
2930 977 2 -23.148505976781774 -17.59559842766887 21.42332825459343 
2931 977 1 -0.4768761266216224 -11.176590302292556 -23.638632619287996 
2932 978 1 13.90613992175097 18.999284163372117 10.3127574070014 
2933 978 2 -25.984790363416828 -11.255683359850233 -19.72453461561153 
2934 978 1 21.78576668893824 22.732178545642483 15.746588191488158 
2935 979 1 -15.72501293282892 -3.310595391496122 4.929765994212893 
2936 979 2 -25.189574475935274 23.799727553880707 -24.503695564513556 
2937 979 1 -24.961866311394633 11.643511414890718 -1.3296842935797422 
2938 980 1 -10.393950321590715 -15.777801007769574 7.658004463771441 
2939 980 2 20.61283588451014 7.247039813524246 -16.895678092530957 
2940 980 1 13.581080774572023 -3.171277897006405 -7.492715609383879 
2941 981 1 -26.265325908321707 1.4006683303455425 1.0394761584249146 
2942 981 2 24.95693890600758 -21.589551184922758 -11.245448363985844 
2943 981 1 -18.211029546980065 -17.64934358971316 -4.130133655125309 
2944 982 1 11.497722458309106 10.547177890464553 -3.999902272664343 
2945 982 2 1.405639074969912 5.634947776873673 21.057161699418742 
2946 982 1 4.3004019188242495 16.840373515784762 11.892601102255618 
2947 983 1 -8.930259234381282 23.954109846386118 8.363734463739505 
2948 983 2 25.37167546681195 0.40902046303299855 -2.7515620144426585 
2949 983 1 -17.090450080330193 3.3089113614647587 -23.50517678563749 
2950 984 1 -22.451560048857928 3.4966930075799176 16.447423740474676 
2951 984 2 -22.246266170746516 11.176010965470368 -16.303738253252558 
2952 984 1 25.194639034076992 -15.502602694169566 -12.893698962042423 
2953 985 1 -19.023712397453245 7.910024377180463 2.002976706383869 
2954 985 2 5.420238313772543 3.7351177863954916 -1.9311166059361042 
2955 985 1 6.114633234739252 -1.4296332472469082 26.746572460109817 
2956 986 1 26.42301167740907 -10.103370311836976 -24.69054925208573 
2957 986 2 -5.223235118596577 14.630254789958748 -19.64078013836927 
2958 986 1 -9.951948999270492 -20.548673453995473 2.2982482184400475 
2959 987 1 20.194861979869835 25.87260519687424 12.272250264619238 
2960 987 2 -3.1826266853467757 -26.05832232437292 -17.699350988939663 
2961 987 1 -24.132114342376948 7.329559412997931 6.326425686328541 
2962 988 1 -19.35670068460754 -1.084279732302825 16.48557586951032 
2963 988 2 -6.625774808253031 -23.346192441380616 7.722242422615622 
2964 988 1 -1.0592506474699412 -6.683169587290816 -2.7712689878487353 
2965 989 1 9.12562500966093 19.164076162160477 10.626919093146476 
2966 989 2 23.995797411371733 -3.960066114718799 10.481099123719723 
2967 989 1 17.498879555200027 3.302695478066802 -13.204870184522333 
2968 990 1 15.723395977653098 14.599403376592043 3.4790208705708245 
2969 990 2 -17.3594785993608 21.56132718014714 -10.11968991830824 
2970 990 1 -25.07069791524437 -0.6293340839486739 25.823640180911575 
2971 991 1 -3.2983199641804717 -11.063610111875535 -14.266233872022354 
2972 991 2 1.9717574971668697 0.39487097866081555 21.754250842901605 
2973 991 1 17.489065130014787 25.663303759450095 14.920560173066548 
2974 992 1 -4.270860027928784 -2.160534090905813 -20.35796663970188 
2975 992 2 -15.516444541364221 12.562228955780043 15.558431324854006 
2976 992 1 -26.413008195149573 -17.448130424985656 9.021707840899879 
2977 993 1 26.891590845279715 -25.358517442587384 10.723894933880288 
2978 993 2 -9.151406524327616 -8.85368507027922 14.190620534915432 
2979 993 1 -26.350760144680837 -24.952907625195014 -21.902055790034876 
2980 994 1 9.33413690548339 7.060334705050494 8.500084178441874 
2981 994 2 -3.6083366131582153 -12.87252674778498 -20.187910182863092 
2982 994 1 6.034885405922438 -23.456760430686558 -9.535944366693919 
2983 995 1 -6.154513469715312 18.486442024416675 9.467077929606042 
2984 995 2 -1.3546594905267 -9.691798890838935 -24.22685757592717 
2985 995 1 -11.27961047589879 4.911541092548401 5.734934094109597 
2986 996 1 -9.996968076023947 -18.433172502924005 -5.7249480136000805 
2987 996 2 0.7400366899053594 -9.51057912645284 11.86050613119118 
2988 996 1 14.115614275716766 5.682139492067542 5.284803759878905 
2989 997 1 2.0796945565717166 -20.123340681625358 14.865447281451296 
2990 997 2 11.231653281036536 5.8929241470073634 -18.10635295297564 
2991 997 1 -13.795606786250987 -23.457402553807825 -12.065873566913142 
2992 998 1 4.883647470284824 -24.684480757102172 -1.9976650104064042 
2993 998 2 11.704801746843572 2.1802381027140676 26.60737638026177 
2994 998 1 1.1225011433659624 -7.3167445677336715 19.30713433528151 
2995 999 1 -15.263326782536513 -9.11601588180321 -25.412450101217186 
2996 999 2 14.713687671784811 1.759747999609683 15.814545320066344 
2997 999 1 26.070610679536152 3.274434009989122 5.5994368564643935 
2998 1000 1 1.8406147513792064 -8.111435000895796 20.109624710838496 
2999 1000 2 18.77076243646748 -11.529177258665346 3.9970797479232765 
3000 1000 1 1.9328947360766868 -26.66673548669188 21.6888854826191 

Bonds
#bondID bondType particlesBonding
1 1 1 2 
2 1 2 3 
3 2 1 3 
4 1 4 5 
5 1 5 6 
6 2 4 6 
7 1 7 8 
8 1 8 9 
9 2 7 9 
10 1 10 11 
11 1 11 12 
12 2 10 12 
13 1 13 14 
14 1 14 15 
15 2 13 15 
16 1 16 17 
17 1 17 18 
18 2 16 18 
19 1 19 20 
20 1 20 21 
21 2 19 21 
22 1 22 23 
23 1 23 24 
24 2 22 24 
25 1 25 26 
26 1 26 27 
27 2 25 27 
28 1 28 29 
29 1 29 30 
30 2 28 30 
31 1 31 32 
32 1 32 33 
33 2 31 33 
34 1 34 35 
35 1 35 36 
36 2 34 36 
37 1 37 38 
38 1 38 39 
39 2 37 39 
40 1 40 41 
41 1 41 42 
42 2 40 42 
43 1 43 44 
44 1 44 45 
45 2 43 45 
46 1 46 47 
47 1 47 48 
48 2 46 48 
49 1 49 50 
50 1 50 51 
51 2 49 51 
52 1 52 53 
53 1 53 54 
54 2 52 54 
55 1 55 56 
56 1 56 57 
57 2 55 57 
58 1 58 59 
59 1 59 60 
60 2 58 60 
61 1 61 62 
62 1 62 63 
63 2 61 63 
64 1 64 65 
65 1 65 66 
66 2 64 66 
67 1 67 68 
68 1 68 69 
69 2 67 69 
70 1 70 71 
71 1 71 72 
72 2 70 72 
73 1 73 74 
74 1 74 75 
75 2 73 75 
76 1 76 77 
77 1 77 78 
78 2 76 78 
79 1 79 80 
80 1 80 81 
81 2 79 81 
82 1 82 83 
83 1 83 84 
84 2 82 84 
85 1 85 86 
86 1 86 87 
87 2 85 87 
88 1 88 89 
89 1 89 90 
90 2 88 90 
91 1 91 92 
92 1 92 93 
93 2 91 93 
94 1 94 95 
95 1 95 96 
96 2 94 96 
97 1 97 98 
98 1 98 99 
99 2 97 99 
100 1 100 101 
101 1 101 102 
102 2 100 102 
103 1 103 104 
104 1 104 105 
105 2 103 105 
106 1 106 107 
107 1 107 108 
108 2 106 108 
109 1 109 110 
110 1 110 111 
111 2 109 111 
112 1 112 113 
113 1 113 114 
114 2 112 114 
115 1 115 116 
116 1 116 117 
117 2 115 117 
118 1 118 119 
119 1 119 120 
120 2 118 120 
121 1 121 122 
122 1 122 123 
123 2 121 123 
124 1 124 125 
125 1 125 126 
126 2 124 126 
127 1 127 128 
128 1 128 129 
129 2 127 129 
130 1 130 131 
131 1 131 132 
132 2 130 132 
133 1 133 134 
134 1 134 135 
135 2 133 135 
136 1 136 137 
137 1 137 138 
138 2 136 138 
139 1 139 140 
140 1 140 141 
141 2 139 141 
142 1 142 143 
143 1 143 144 
144 2 142 144 
145 1 145 146 
146 1 146 147 
147 2 145 147 
148 1 148 149 
149 1 149 150 
150 2 148 150 
151 1 151 152 
152 1 152 153 
153 2 151 153 
154 1 154 155 
155 1 155 156 
156 2 154 156 
157 1 157 158 
158 1 158 159 
159 2 157 159 
160 1 160 161 
161 1 161 162 
162 2 160 162 
163 1 163 164 
164 1 164 165 
165 2 163 165 
166 1 166 167 
167 1 167 168 
168 2 166 168 
169 1 169 170 
170 1 170 171 
171 2 169 171 
172 1 172 173 
173 1 173 174 
174 2 172 174 
175 1 175 176 
176 1 176 177 
177 2 175 177 
178 1 178 179 
179 1 179 180 
180 2 178 180 
181 1 181 182 
182 1 182 183 
183 2 181 183 
184 1 184 185 
185 1 185 186 
186 2 184 186 
187 1 187 188 
188 1 188 189 
189 2 187 189 
190 1 190 191 
191 1 191 192 
192 2 190 192 
193 1 193 194 
194 1 194 195 
195 2 193 195 
196 1 196 197 
197 1 197 198 
198 2 196 198 
199 1 199 200 
200 1 200 201 
201 2 199 201 
202 1 202 203 
203 1 203 204 
204 2 202 204 
205 1 205 206 
206 1 206 207 
207 2 205 207 
208 1 208 209 
209 1 209 210 
210 2 208 210 
211 1 211 212 
212 1 212 213 
213 2 211 213 
214 1 214 215 
215 1 215 216 
216 2 214 216 
217 1 217 218 
218 1 218 219 
219 2 217 219 
220 1 220 221 
221 1 221 222 
222 2 220 222 
223 1 223 224 
224 1 224 225 
225 2 223 225 
226 1 226 227 
227 1 227 228 
228 2 226 228 
229 1 229 230 
230 1 230 231 
231 2 229 231 
232 1 232 233 
233 1 233 234 
234 2 232 234 
235 1 235 236 
236 1 236 237 
237 2 235 237 
238 1 238 239 
239 1 239 240 
240 2 238 240 
241 1 241 242 
242 1 242 243 
243 2 241 243 
244 1 244 245 
245 1 245 246 
246 2 244 246 
247 1 247 248 
248 1 248 249 
249 2 247 249 
250 1 250 251 
251 1 251 252 
252 2 250 252 
253 1 253 254 
254 1 254 255 
255 2 253 255 
256 1 256 257 
257 1 257 258 
258 2 256 258 
259 1 259 260 
260 1 260 261 
261 2 259 261 
262 1 262 263 
263 1 263 264 
264 2 262 264 
265 1 265 266 
266 1 266 267 
267 2 265 267 
268 1 268 269 
269 1 269 270 
270 2 268 270 
271 1 271 272 
272 1 272 273 
273 2 271 273 
274 1 274 275 
275 1 275 276 
276 2 274 276 
277 1 277 278 
278 1 278 279 
279 2 277 279 
280 1 280 281 
281 1 281 282 
282 2 280 282 
283 1 283 284 
284 1 284 285 
285 2 283 285 
286 1 286 287 
287 1 287 288 
288 2 286 288 
289 1 289 290 
290 1 290 291 
291 2 289 291 
292 1 292 293 
293 1 293 294 
294 2 292 294 
295 1 295 296 
296 1 296 297 
297 2 295 297 
298 1 298 299 
299 1 299 300 
300 2 298 300 
301 1 301 302 
302 1 302 303 
303 2 301 303 
304 1 304 305 
305 1 305 306 
306 2 304 306 
307 1 307 308 
308 1 308 309 
309 2 307 309 
310 1 310 311 
311 1 311 312 
312 2 310 312 
313 1 313 314 
314 1 314 315 
315 2 313 315 
316 1 316 317 
317 1 317 318 
318 2 316 318 
319 1 319 320 
320 1 320 321 
321 2 319 321 
322 1 322 323 
323 1 323 324 
324 2 322 324 
325 1 325 326 
326 1 326 327 
327 2 325 327 
328 1 328 329 
329 1 329 330 
330 2 328 330 
331 1 331 332 
332 1 332 333 
333 2 331 333 
334 1 334 335 
335 1 335 336 
336 2 334 336 
337 1 337 338 
338 1 338 339 
339 2 337 339 
340 1 340 341 
341 1 341 342 
342 2 340 342 
343 1 343 344 
344 1 344 345 
345 2 343 345 
346 1 346 347 
347 1 347 348 
348 2 346 348 
349 1 349 350 
350 1 350 351 
351 2 349 351 
352 1 352 353 
353 1 353 354 
354 2 352 354 
355 1 355 356 
356 1 356 357 
357 2 355 357 
358 1 358 359 
359 1 359 360 
360 2 358 360 
361 1 361 362 
362 1 362 363 
363 2 361 363 
364 1 364 365 
365 1 365 366 
366 2 364 366 
367 1 367 368 
368 1 368 369 
369 2 367 369 
370 1 370 371 
371 1 371 372 
372 2 370 372 
373 1 373 374 
374 1 374 375 
375 2 373 375 
376 1 376 377 
377 1 377 378 
378 2 376 378 
379 1 379 380 
380 1 380 381 
381 2 379 381 
382 1 382 383 
383 1 383 384 
384 2 382 384 
385 1 385 386 
386 1 386 387 
387 2 385 387 
388 1 388 389 
389 1 389 390 
390 2 388 390 
391 1 391 392 
392 1 392 393 
393 2 391 393 
394 1 394 395 
395 1 395 396 
396 2 394 396 
397 1 397 398 
398 1 398 399 
399 2 397 399 
400 1 400 401 
401 1 401 402 
402 2 400 402 
403 1 403 404 
404 1 404 405 
405 2 403 405 
406 1 406 407 
407 1 407 408 
408 2 406 408 
409 1 409 410 
410 1 410 411 
411 2 409 411 
412 1 412 413 
413 1 413 414 
414 2 412 414 
415 1 415 416 
416 1 416 417 
417 2 415 417 
418 1 418 419 
419 1 419 420 
420 2 418 420 
421 1 421 422 
422 1 422 423 
423 2 421 423 
424 1 424 425 
425 1 425 426 
426 2 424 426 
427 1 427 428 
428 1 428 429 
429 2 427 429 
430 1 430 431 
431 1 431 432 
432 2 430 432 
433 1 433 434 
434 1 434 435 
435 2 433 435 
436 1 436 437 
437 1 437 438 
438 2 436 438 
439 1 439 440 
440 1 440 441 
441 2 439 441 
442 1 442 443 
443 1 443 444 
444 2 442 444 
445 1 445 446 
446 1 446 447 
447 2 445 447 
448 1 448 449 
449 1 449 450 
450 2 448 450 
451 1 451 452 
452 1 452 453 
453 2 451 453 
454 1 454 455 
455 1 455 456 
456 2 454 456 
457 1 457 458 
458 1 458 459 
459 2 457 459 
460 1 460 461 
461 1 461 462 
462 2 460 462 
463 1 463 464 
464 1 464 465 
465 2 463 465 
466 1 466 467 
467 1 467 468 
468 2 466 468 
469 1 469 470 
470 1 470 471 
471 2 469 471 
472 1 472 473 
473 1 473 474 
474 2 472 474 
475 1 475 476 
476 1 476 477 
477 2 475 477 
478 1 478 479 
479 1 479 480 
480 2 478 480 
481 1 481 482 
482 1 482 483 
483 2 481 483 
484 1 484 485 
485 1 485 486 
486 2 484 486 
487 1 487 488 
488 1 488 489 
489 2 487 489 
490 1 490 491 
491 1 491 492 
492 2 490 492 
493 1 493 494 
494 1 494 495 
495 2 493 495 
496 1 496 497 
497 1 497 498 
498 2 496 498 
499 1 499 500 
500 1 500 501 
501 2 499 501 
502 1 502 503 
503 1 503 504 
504 2 502 504 
505 1 505 506 
506 1 506 507 
507 2 505 507 
508 1 508 509 
509 1 509 510 
510 2 508 510 
511 1 511 512 
512 1 512 513 
513 2 511 513 
514 1 514 515 
515 1 515 516 
516 2 514 516 
517 1 517 518 
518 1 518 519 
519 2 517 519 
520 1 520 521 
521 1 521 522 
522 2 520 522 
523 1 523 524 
524 1 524 525 
525 2 523 525 
526 1 526 527 
527 1 527 528 
528 2 526 528 
529 1 529 530 
530 1 530 531 
531 2 529 531 
532 1 532 533 
533 1 533 534 
534 2 532 534 
535 1 535 536 
536 1 536 537 
537 2 535 537 
538 1 538 539 
539 1 539 540 
540 2 538 540 
541 1 541 542 
542 1 542 543 
543 2 541 543 
544 1 544 545 
545 1 545 546 
546 2 544 546 
547 1 547 548 
548 1 548 549 
549 2 547 549 
550 1 550 551 
551 1 551 552 
552 2 550 552 
553 1 553 554 
554 1 554 555 
555 2 553 555 
556 1 556 557 
557 1 557 558 
558 2 556 558 
559 1 559 560 
560 1 560 561 
561 2 559 561 
562 1 562 563 
563 1 563 564 
564 2 562 564 
565 1 565 566 
566 1 566 567 
567 2 565 567 
568 1 568 569 
569 1 569 570 
570 2 568 570 
571 1 571 572 
572 1 572 573 
573 2 571 573 
574 1 574 575 
575 1 575 576 
576 2 574 576 
577 1 577 578 
578 1 578 579 
579 2 577 579 
580 1 580 581 
581 1 581 582 
582 2 580 582 
583 1 583 584 
584 1 584 585 
585 2 583 585 
586 1 586 587 
587 1 587 588 
588 2 586 588 
589 1 589 590 
590 1 590 591 
591 2 589 591 
592 1 592 593 
593 1 593 594 
594 2 592 594 
595 1 595 596 
596 1 596 597 
597 2 595 597 
598 1 598 599 
599 1 599 600 
600 2 598 600 
601 1 601 602 
602 1 602 603 
603 2 601 603 
604 1 604 605 
605 1 605 606 
606 2 604 606 
607 1 607 608 
608 1 608 609 
609 2 607 609 
610 1 610 611 
611 1 611 612 
612 2 610 612 
613 1 613 614 
614 1 614 615 
615 2 613 615 
616 1 616 617 
617 1 617 618 
618 2 616 618 
619 1 619 620 
620 1 620 621 
621 2 619 621 
622 1 622 623 
623 1 623 624 
624 2 622 624 
625 1 625 626 
626 1 626 627 
627 2 625 627 
628 1 628 629 
629 1 629 630 
630 2 628 630 
631 1 631 632 
632 1 632 633 
633 2 631 633 
634 1 634 635 
635 1 635 636 
636 2 634 636 
637 1 637 638 
638 1 638 639 
639 2 637 639 
640 1 640 641 
641 1 641 642 
642 2 640 642 
643 1 643 644 
644 1 644 645 
645 2 643 645 
646 1 646 647 
647 1 647 648 
648 2 646 648 
649 1 649 650 
650 1 650 651 
651 2 649 651 
652 1 652 653 
653 1 653 654 
654 2 652 654 
655 1 655 656 
656 1 656 657 
657 2 655 657 
658 1 658 659 
659 1 659 660 
660 2 658 660 
661 1 661 662 
662 1 662 663 
663 2 661 663 
664 1 664 665 
665 1 665 666 
666 2 664 666 
667 1 667 668 
668 1 668 669 
669 2 667 669 
670 1 670 671 
671 1 671 672 
672 2 670 672 
673 1 673 674 
674 1 674 675 
675 2 673 675 
676 1 676 677 
677 1 677 678 
678 2 676 678 
679 1 679 680 
680 1 680 681 
681 2 679 681 
682 1 682 683 
683 1 683 684 
684 2 682 684 
685 1 685 686 
686 1 686 687 
687 2 685 687 
688 1 688 689 
689 1 689 690 
690 2 688 690 
691 1 691 692 
692 1 692 693 
693 2 691 693 
694 1 694 695 
695 1 695 696 
696 2 694 696 
697 1 697 698 
698 1 698 699 
699 2 697 699 
700 1 700 701 
701 1 701 702 
702 2 700 702 
703 1 703 704 
704 1 704 705 
705 2 703 705 
706 1 706 707 
707 1 707 708 
708 2 706 708 
709 1 709 710 
710 1 710 711 
711 2 709 711 
712 1 712 713 
713 1 713 714 
714 2 712 714 
715 1 715 716 
716 1 716 717 
717 2 715 717 
718 1 718 719 
719 1 719 720 
720 2 718 720 
721 1 721 722 
722 1 722 723 
723 2 721 723 
724 1 724 725 
725 1 725 726 
726 2 724 726 
727 1 727 728 
728 1 728 729 
729 2 727 729 
730 1 730 731 
731 1 731 732 
732 2 730 732 
733 1 733 734 
734 1 734 735 
735 2 733 735 
736 1 736 737 
737 1 737 738 
738 2 736 738 
739 1 739 740 
740 1 740 741 
741 2 739 741 
742 1 742 743 
743 1 743 744 
744 2 742 744 
745 1 745 746 
746 1 746 747 
747 2 745 747 
748 1 748 749 
749 1 749 750 
750 2 748 750 
751 1 751 752 
752 1 752 753 
753 2 751 753 
754 1 754 755 
755 1 755 756 
756 2 754 756 
757 1 757 758 
758 1 758 759 
759 2 757 759 
760 1 760 761 
761 1 761 762 
762 2 760 762 
763 1 763 764 
764 1 764 765 
765 2 763 765 
766 1 766 767 
767 1 767 768 
768 2 766 768 
769 1 769 770 
770 1 770 771 
771 2 769 771 
772 1 772 773 
773 1 773 774 
774 2 772 774 
775 1 775 776 
776 1 776 777 
777 2 775 777 
778 1 778 779 
779 1 779 780 
780 2 778 780 
781 1 781 782 
782 1 782 783 
783 2 781 783 
784 1 784 785 
785 1 785 786 
786 2 784 786 
787 1 787 788 
788 1 788 789 
789 2 787 789 
790 1 790 791 
791 1 791 792 
792 2 790 792 
793 1 793 794 
794 1 794 795 
795 2 793 795 
796 1 796 797 
797 1 797 798 
798 2 796 798 
799 1 799 800 
800 1 800 801 
801 2 799 801 
802 1 802 803 
803 1 803 804 
804 2 802 804 
805 1 805 806 
806 1 806 807 
807 2 805 807 
808 1 808 809 
809 1 809 810 
810 2 808 810 
811 1 811 812 
812 1 812 813 
813 2 811 813 
814 1 814 815 
815 1 815 816 
816 2 814 816 
817 1 817 818 
818 1 818 819 
819 2 817 819 
820 1 820 821 
821 1 821 822 
822 2 820 822 
823 1 823 824 
824 1 824 825 
825 2 823 825 
826 1 826 827 
827 1 827 828 
828 2 826 828 
829 1 829 830 
830 1 830 831 
831 2 829 831 
832 1 832 833 
833 1 833 834 
834 2 832 834 
835 1 835 836 
836 1 836 837 
837 2 835 837 
838 1 838 839 
839 1 839 840 
840 2 838 840 
841 1 841 842 
842 1 842 843 
843 2 841 843 
844 1 844 845 
845 1 845 846 
846 2 844 846 
847 1 847 848 
848 1 848 849 
849 2 847 849 
850 1 850 851 
851 1 851 852 
852 2 850 852 
853 1 853 854 
854 1 854 855 
855 2 853 855 
856 1 856 857 
857 1 857 858 
858 2 856 858 
859 1 859 860 
860 1 860 861 
861 2 859 861 
862 1 862 863 
863 1 863 864 
864 2 862 864 
865 1 865 866 
866 1 866 867 
867 2 865 867 
868 1 868 869 
869 1 869 870 
870 2 868 870 
871 1 871 872 
872 1 872 873 
873 2 871 873 
874 1 874 875 
875 1 875 876 
876 2 874 876 
877 1 877 878 
878 1 878 879 
879 2 877 879 
880 1 880 881 
881 1 881 882 
882 2 880 882 
883 1 883 884 
884 1 884 885 
885 2 883 885 
886 1 886 887 
887 1 887 888 
888 2 886 888 
889 1 889 890 
890 1 890 891 
891 2 889 891 
892 1 892 893 
893 1 893 894 
894 2 892 894 
895 1 895 896 
896 1 896 897 
897 2 895 897 
898 1 898 899 
899 1 899 900 
900 2 898 900 
901 1 901 902 
902 1 902 903 
903 2 901 903 
904 1 904 905 
905 1 905 906 
906 2 904 906 
907 1 907 908 
908 1 908 909 
909 2 907 909 
910 1 910 911 
911 1 911 912 
912 2 910 912 
913 1 913 914 
914 1 914 915 
915 2 913 915 
916 1 916 917 
917 1 917 918 
918 2 916 918 
919 1 919 920 
920 1 920 921 
921 2 919 921 
922 1 922 923 
923 1 923 924 
924 2 922 924 
925 1 925 926 
926 1 926 927 
927 2 925 927 
928 1 928 929 
929 1 929 930 
930 2 928 930 
931 1 931 932 
932 1 932 933 
933 2 931 933 
934 1 934 935 
935 1 935 936 
936 2 934 936 
937 1 937 938 
938 1 938 939 
939 2 937 939 
940 1 940 941 
941 1 941 942 
942 2 940 942 
943 1 943 944 
944 1 944 945 
945 2 943 945 
946 1 946 947 
947 1 947 948 
948 2 946 948 
949 1 949 950 
950 1 950 951 
951 2 949 951 
952 1 952 953 
953 1 953 954 
954 2 952 954 
955 1 955 956 
956 1 956 957 
957 2 955 957 
958 1 958 959 
959 1 959 960 
960 2 958 960 
961 1 961 962 
962 1 962 963 
963 2 961 963 
964 1 964 965 
965 1 965 966 
966 2 964 966 
967 1 967 968 
968 1 968 969 
969 2 967 969 
970 1 970 971 
971 1 971 972 
972 2 970 972 
973 1 973 974 
974 1 974 975 
975 2 973 975 
976 1 976 977 
977 1 977 978 
978 2 976 978 
979 1 979 980 
980 1 980 981 
981 2 979 981 
982 1 982 983 
983 1 983 984 
984 2 982 984 
985 1 985 986 
986 1 986 987 
987 2 985 987 
988 1 988 989 
989 1 989 990 
990 2 988 990 
991 1 991 992 
992 1 992 993 
993 2 991 993 
994 1 994 995 
995 1 995 996 
996 2 994 996 
997 1 997 998 
998 1 998 999 
999 2 997 999 
1000 1 1000 1001 
1001 1 1001 1002 
1002 2 1000 1002 
1003 1 1003 1004 
1004 1 1004 1005 
1005 2 1003 1005 
1006 1 1006 1007 
1007 1 1007 1008 
1008 2 1006 1008 
1009 1 1009 1010 
1010 1 1010 1011 
1011 2 1009 1011 
1012 1 1012 1013 
1013 1 1013 1014 
1014 2 1012 1014 
1015 1 1015 1016 
1016 1 1016 1017 
1017 2 1015 1017 
1018 1 1018 1019 
1019 1 1019 1020 
1020 2 1018 1020 
1021 1 1021 1022 
1022 1 1022 1023 
1023 2 1021 1023 
1024 1 1024 1025 
1025 1 1025 1026 
1026 2 1024 1026 
1027 1 1027 1028 
1028 1 1028 1029 
1029 2 1027 1029 
1030 1 1030 1031 
1031 1 1031 1032 
1032 2 1030 1032 
1033 1 1033 1034 
1034 1 1034 1035 
1035 2 1033 1035 
1036 1 1036 1037 
1037 1 1037 1038 
1038 2 1036 1038 
1039 1 1039 1040 
1040 1 1040 1041 
1041 2 1039 1041 
1042 1 1042 1043 
1043 1 1043 1044 
1044 2 1042 1044 
1045 1 1045 1046 
1046 1 1046 1047 
1047 2 1045 1047 
1048 1 1048 1049 
1049 1 1049 1050 
1050 2 1048 1050 
1051 1 1051 1052 
1052 1 1052 1053 
1053 2 1051 1053 
1054 1 1054 1055 
1055 1 1055 1056 
1056 2 1054 1056 
1057 1 1057 1058 
1058 1 1058 1059 
1059 2 1057 1059 
1060 1 1060 1061 
1061 1 1061 1062 
1062 2 1060 1062 
1063 1 1063 1064 
1064 1 1064 1065 
1065 2 1063 1065 
1066 1 1066 1067 
1067 1 1067 1068 
1068 2 1066 1068 
1069 1 1069 1070 
1070 1 1070 1071 
1071 2 1069 1071 
1072 1 1072 1073 
1073 1 1073 1074 
1074 2 1072 1074 
1075 1 1075 1076 
1076 1 1076 1077 
1077 2 1075 1077 
1078 1 1078 1079 
1079 1 1079 1080 
1080 2 1078 1080 
1081 1 1081 1082 
1082 1 1082 1083 
1083 2 1081 1083 
1084 1 1084 1085 
1085 1 1085 1086 
1086 2 1084 1086 
1087 1 1087 1088 
1088 1 1088 1089 
1089 2 1087 1089 
1090 1 1090 1091 
1091 1 1091 1092 
1092 2 1090 1092 
1093 1 1093 1094 
1094 1 1094 1095 
1095 2 1093 1095 
1096 1 1096 1097 
1097 1 1097 1098 
1098 2 1096 1098 
1099 1 1099 1100 
1100 1 1100 1101 
1101 2 1099 1101 
1102 1 1102 1103 
1103 1 1103 1104 
1104 2 1102 1104 
1105 1 1105 1106 
1106 1 1106 1107 
1107 2 1105 1107 
1108 1 1108 1109 
1109 1 1109 1110 
1110 2 1108 1110 
1111 1 1111 1112 
1112 1 1112 1113 
1113 2 1111 1113 
1114 1 1114 1115 
1115 1 1115 1116 
1116 2 1114 1116 
1117 1 1117 1118 
1118 1 1118 1119 
1119 2 1117 1119 
1120 1 1120 1121 
1121 1 1121 1122 
1122 2 1120 1122 
1123 1 1123 1124 
1124 1 1124 1125 
1125 2 1123 1125 
1126 1 1126 1127 
1127 1 1127 1128 
1128 2 1126 1128 
1129 1 1129 1130 
1130 1 1130 1131 
1131 2 1129 1131 
1132 1 1132 1133 
1133 1 1133 1134 
1134 2 1132 1134 
1135 1 1135 1136 
1136 1 1136 1137 
1137 2 1135 1137 
1138 1 1138 1139 
1139 1 1139 1140 
1140 2 1138 1140 
1141 1 1141 1142 
1142 1 1142 1143 
1143 2 1141 1143 
1144 1 1144 1145 
1145 1 1145 1146 
1146 2 1144 1146 
1147 1 1147 1148 
1148 1 1148 1149 
1149 2 1147 1149 
1150 1 1150 1151 
1151 1 1151 1152 
1152 2 1150 1152 
1153 1 1153 1154 
1154 1 1154 1155 
1155 2 1153 1155 
1156 1 1156 1157 
1157 1 1157 1158 
1158 2 1156 1158 
1159 1 1159 1160 
1160 1 1160 1161 
1161 2 1159 1161 
1162 1 1162 1163 
1163 1 1163 1164 
1164 2 1162 1164 
1165 1 1165 1166 
1166 1 1166 1167 
1167 2 1165 1167 
1168 1 1168 1169 
1169 1 1169 1170 
1170 2 1168 1170 
1171 1 1171 1172 
1172 1 1172 1173 
1173 2 1171 1173 
1174 1 1174 1175 
1175 1 1175 1176 
1176 2 1174 1176 
1177 1 1177 1178 
1178 1 1178 1179 
1179 2 1177 1179 
1180 1 1180 1181 
1181 1 1181 1182 
1182 2 1180 1182 
1183 1 1183 1184 
1184 1 1184 1185 
1185 2 1183 1185 
1186 1 1186 1187 
1187 1 1187 1188 
1188 2 1186 1188 
1189 1 1189 1190 
1190 1 1190 1191 
1191 2 1189 1191 
1192 1 1192 1193 
1193 1 1193 1194 
1194 2 1192 1194 
1195 1 1195 1196 
1196 1 1196 1197 
1197 2 1195 1197 
1198 1 1198 1199 
1199 1 1199 1200 
1200 2 1198 1200 
1201 1 1201 1202 
1202 1 1202 1203 
1203 2 1201 1203 
1204 1 1204 1205 
1205 1 1205 1206 
1206 2 1204 1206 
1207 1 1207 1208 
1208 1 1208 1209 
1209 2 1207 1209 
1210 1 1210 1211 
1211 1 1211 1212 
1212 2 1210 1212 
1213 1 1213 1214 
1214 1 1214 1215 
1215 2 1213 1215 
1216 1 1216 1217 
1217 1 1217 1218 
1218 2 1216 1218 
1219 1 1219 1220 
1220 1 1220 1221 
1221 2 1219 1221 
1222 1 1222 1223 
1223 1 1223 1224 
1224 2 1222 1224 
1225 1 1225 1226 
1226 1 1226 1227 
1227 2 1225 1227 
1228 1 1228 1229 
1229 1 1229 1230 
1230 2 1228 1230 
1231 1 1231 1232 
1232 1 1232 1233 
1233 2 1231 1233 
1234 1 1234 1235 
1235 1 1235 1236 
1236 2 1234 1236 
1237 1 1237 1238 
1238 1 1238 1239 
1239 2 1237 1239 
1240 1 1240 1241 
1241 1 1241 1242 
1242 2 1240 1242 
1243 1 1243 1244 
1244 1 1244 1245 
1245 2 1243 1245 
1246 1 1246 1247 
1247 1 1247 1248 
1248 2 1246 1248 
1249 1 1249 1250 
1250 1 1250 1251 
1251 2 1249 1251 
1252 1 1252 1253 
1253 1 1253 1254 
1254 2 1252 1254 
1255 1 1255 1256 
1256 1 1256 1257 
1257 2 1255 1257 
1258 1 1258 1259 
1259 1 1259 1260 
1260 2 1258 1260 
1261 1 1261 1262 
1262 1 1262 1263 
1263 2 1261 1263 
1264 1 1264 1265 
1265 1 1265 1266 
1266 2 1264 1266 
1267 1 1267 1268 
1268 1 1268 1269 
1269 2 1267 1269 
1270 1 1270 1271 
1271 1 1271 1272 
1272 2 1270 1272 
1273 1 1273 1274 
1274 1 1274 1275 
1275 2 1273 1275 
1276 1 1276 1277 
1277 1 1277 1278 
1278 2 1276 1278 
1279 1 1279 1280 
1280 1 1280 1281 
1281 2 1279 1281 
1282 1 1282 1283 
1283 1 1283 1284 
1284 2 1282 1284 
1285 1 1285 1286 
1286 1 1286 1287 
1287 2 1285 1287 
1288 1 1288 1289 
1289 1 1289 1290 
1290 2 1288 1290 
1291 1 1291 1292 
1292 1 1292 1293 
1293 2 1291 1293 
1294 1 1294 1295 
1295 1 1295 1296 
1296 2 1294 1296 
1297 1 1297 1298 
1298 1 1298 1299 
1299 2 1297 1299 
1300 1 1300 1301 
1301 1 1301 1302 
1302 2 1300 1302 
1303 1 1303 1304 
1304 1 1304 1305 
1305 2 1303 1305 
1306 1 1306 1307 
1307 1 1307 1308 
1308 2 1306 1308 
1309 1 1309 1310 
1310 1 1310 1311 
1311 2 1309 1311 
1312 1 1312 1313 
1313 1 1313 1314 
1314 2 1312 1314 
1315 1 1315 1316 
1316 1 1316 1317 
1317 2 1315 1317 
1318 1 1318 1319 
1319 1 1319 1320 
1320 2 1318 1320 
1321 1 1321 1322 
1322 1 1322 1323 
1323 2 1321 1323 
1324 1 1324 1325 
1325 1 1325 1326 
1326 2 1324 1326 
1327 1 1327 1328 
1328 1 1328 1329 
1329 2 1327 1329 
1330 1 1330 1331 
1331 1 1331 1332 
1332 2 1330 1332 
1333 1 1333 1334 
1334 1 1334 1335 
1335 2 1333 1335 
1336 1 1336 1337 
1337 1 1337 1338 
1338 2 1336 1338 
1339 1 1339 1340 
1340 1 1340 1341 
1341 2 1339 1341 
1342 1 1342 1343 
1343 1 1343 1344 
1344 2 1342 1344 
1345 1 1345 1346 
1346 1 1346 1347 
1347 2 1345 1347 
1348 1 1348 1349 
1349 1 1349 1350 
1350 2 1348 1350 
1351 1 1351 1352 
1352 1 1352 1353 
1353 2 1351 1353 
1354 1 1354 1355 
1355 1 1355 1356 
1356 2 1354 1356 
1357 1 1357 1358 
1358 1 1358 1359 
1359 2 1357 1359 
1360 1 1360 1361 
1361 1 1361 1362 
1362 2 1360 1362 
1363 1 1363 1364 
1364 1 1364 1365 
1365 2 1363 1365 
1366 1 1366 1367 
1367 1 1367 1368 
1368 2 1366 1368 
1369 1 1369 1370 
1370 1 1370 1371 
1371 2 1369 1371 
1372 1 1372 1373 
1373 1 1373 1374 
1374 2 1372 1374 
1375 1 1375 1376 
1376 1 1376 1377 
1377 2 1375 1377 
1378 1 1378 1379 
1379 1 1379 1380 
1380 2 1378 1380 
1381 1 1381 1382 
1382 1 1382 1383 
1383 2 1381 1383 
1384 1 1384 1385 
1385 1 1385 1386 
1386 2 1384 1386 
1387 1 1387 1388 
1388 1 1388 1389 
1389 2 1387 1389 
1390 1 1390 1391 
1391 1 1391 1392 
1392 2 1390 1392 
1393 1 1393 1394 
1394 1 1394 1395 
1395 2 1393 1395 
1396 1 1396 1397 
1397 1 1397 1398 
1398 2 1396 1398 
1399 1 1399 1400 
1400 1 1400 1401 
1401 2 1399 1401 
1402 1 1402 1403 
1403 1 1403 1404 
1404 2 1402 1404 
1405 1 1405 1406 
1406 1 1406 1407 
1407 2 1405 1407 
1408 1 1408 1409 
1409 1 1409 1410 
1410 2 1408 1410 
1411 1 1411 1412 
1412 1 1412 1413 
1413 2 1411 1413 
1414 1 1414 1415 
1415 1 1415 1416 
1416 2 1414 1416 
1417 1 1417 1418 
1418 1 1418 1419 
1419 2 1417 1419 
1420 1 1420 1421 
1421 1 1421 1422 
1422 2 1420 1422 
1423 1 1423 1424 
1424 1 1424 1425 
1425 2 1423 1425 
1426 1 1426 1427 
1427 1 1427 1428 
1428 2 1426 1428 
1429 1 1429 1430 
1430 1 1430 1431 
1431 2 1429 1431 
1432 1 1432 1433 
1433 1 1433 1434 
1434 2 1432 1434 
1435 1 1435 1436 
1436 1 1436 1437 
1437 2 1435 1437 
1438 1 1438 1439 
1439 1 1439 1440 
1440 2 1438 1440 
1441 1 1441 1442 
1442 1 1442 1443 
1443 2 1441 1443 
1444 1 1444 1445 
1445 1 1445 1446 
1446 2 1444 1446 
1447 1 1447 1448 
1448 1 1448 1449 
1449 2 1447 1449 
1450 1 1450 1451 
1451 1 1451 1452 
1452 2 1450 1452 
1453 1 1453 1454 
1454 1 1454 1455 
1455 2 1453 1455 
1456 1 1456 1457 
1457 1 1457 1458 
1458 2 1456 1458 
1459 1 1459 1460 
1460 1 1460 1461 
1461 2 1459 1461 
1462 1 1462 1463 
1463 1 1463 1464 
1464 2 1462 1464 
1465 1 1465 1466 
1466 1 1466 1467 
1467 2 1465 1467 
1468 1 1468 1469 
1469 1 1469 1470 
1470 2 1468 1470 
1471 1 1471 1472 
1472 1 1472 1473 
1473 2 1471 1473 
1474 1 1474 1475 
1475 1 1475 1476 
1476 2 1474 1476 
1477 1 1477 1478 
1478 1 1478 1479 
1479 2 1477 1479 
1480 1 1480 1481 
1481 1 1481 1482 
1482 2 1480 1482 
1483 1 1483 1484 
1484 1 1484 1485 
1485 2 1483 1485 
1486 1 1486 1487 
1487 1 1487 1488 
1488 2 1486 1488 
1489 1 1489 1490 
1490 1 1490 1491 
1491 2 1489 1491 
1492 1 1492 1493 
1493 1 1493 1494 
1494 2 1492 1494 
1495 1 1495 1496 
1496 1 1496 1497 
1497 2 1495 1497 
1498 1 1498 1499 
1499 1 1499 1500 
1500 2 1498 1500 
1501 1 1501 1502 
1502 1 1502 1503 
1503 2 1501 1503 
1504 1 1504 1505 
1505 1 1505 1506 
1506 2 1504 1506 
1507 1 1507 1508 
1508 1 1508 1509 
1509 2 1507 1509 
1510 1 1510 1511 
1511 1 1511 1512 
1512 2 1510 1512 
1513 1 1513 1514 
1514 1 1514 1515 
1515 2 1513 1515 
1516 1 1516 1517 
1517 1 1517 1518 
1518 2 1516 1518 
1519 1 1519 1520 
1520 1 1520 1521 
1521 2 1519 1521 
1522 1 1522 1523 
1523 1 1523 1524 
1524 2 1522 1524 
1525 1 1525 1526 
1526 1 1526 1527 
1527 2 1525 1527 
1528 1 1528 1529 
1529 1 1529 1530 
1530 2 1528 1530 
1531 1 1531 1532 
1532 1 1532 1533 
1533 2 1531 1533 
1534 1 1534 1535 
1535 1 1535 1536 
1536 2 1534 1536 
1537 1 1537 1538 
1538 1 1538 1539 
1539 2 1537 1539 
1540 1 1540 1541 
1541 1 1541 1542 
1542 2 1540 1542 
1543 1 1543 1544 
1544 1 1544 1545 
1545 2 1543 1545 
1546 1 1546 1547 
1547 1 1547 1548 
1548 2 1546 1548 
1549 1 1549 1550 
1550 1 1550 1551 
1551 2 1549 1551 
1552 1 1552 1553 
1553 1 1553 1554 
1554 2 1552 1554 
1555 1 1555 1556 
1556 1 1556 1557 
1557 2 1555 1557 
1558 1 1558 1559 
1559 1 1559 1560 
1560 2 1558 1560 
1561 1 1561 1562 
1562 1 1562 1563 
1563 2 1561 1563 
1564 1 1564 1565 
1565 1 1565 1566 
1566 2 1564 1566 
1567 1 1567 1568 
1568 1 1568 1569 
1569 2 1567 1569 
1570 1 1570 1571 
1571 1 1571 1572 
1572 2 1570 1572 
1573 1 1573 1574 
1574 1 1574 1575 
1575 2 1573 1575 
1576 1 1576 1577 
1577 1 1577 1578 
1578 2 1576 1578 
1579 1 1579 1580 
1580 1 1580 1581 
1581 2 1579 1581 
1582 1 1582 1583 
1583 1 1583 1584 
1584 2 1582 1584 
1585 1 1585 1586 
1586 1 1586 1587 
1587 2 1585 1587 
1588 1 1588 1589 
1589 1 1589 1590 
1590 2 1588 1590 
1591 1 1591 1592 
1592 1 1592 1593 
1593 2 1591 1593 
1594 1 1594 1595 
1595 1 1595 1596 
1596 2 1594 1596 
1597 1 1597 1598 
1598 1 1598 1599 
1599 2 1597 1599 
1600 1 1600 1601 
1601 1 1601 1602 
1602 2 1600 1602 
1603 1 1603 1604 
1604 1 1604 1605 
1605 2 1603 1605 
1606 1 1606 1607 
1607 1 1607 1608 
1608 2 1606 1608 
1609 1 1609 1610 
1610 1 1610 1611 
1611 2 1609 1611 
1612 1 1612 1613 
1613 1 1613 1614 
1614 2 1612 1614 
1615 1 1615 1616 
1616 1 1616 1617 
1617 2 1615 1617 
1618 1 1618 1619 
1619 1 1619 1620 
1620 2 1618 1620 
1621 1 1621 1622 
1622 1 1622 1623 
1623 2 1621 1623 
1624 1 1624 1625 
1625 1 1625 1626 
1626 2 1624 1626 
1627 1 1627 1628 
1628 1 1628 1629 
1629 2 1627 1629 
1630 1 1630 1631 
1631 1 1631 1632 
1632 2 1630 1632 
1633 1 1633 1634 
1634 1 1634 1635 
1635 2 1633 1635 
1636 1 1636 1637 
1637 1 1637 1638 
1638 2 1636 1638 
1639 1 1639 1640 
1640 1 1640 1641 
1641 2 1639 1641 
1642 1 1642 1643 
1643 1 1643 1644 
1644 2 1642 1644 
1645 1 1645 1646 
1646 1 1646 1647 
1647 2 1645 1647 
1648 1 1648 1649 
1649 1 1649 1650 
1650 2 1648 1650 
1651 1 1651 1652 
1652 1 1652 1653 
1653 2 1651 1653 
1654 1 1654 1655 
1655 1 1655 1656 
1656 2 1654 1656 
1657 1 1657 1658 
1658 1 1658 1659 
1659 2 1657 1659 
1660 1 1660 1661 
1661 1 1661 1662 
1662 2 1660 1662 
1663 1 1663 1664 
1664 1 1664 1665 
1665 2 1663 1665 
1666 1 1666 1667 
1667 1 1667 1668 
1668 2 1666 1668 
1669 1 1669 1670 
1670 1 1670 1671 
1671 2 1669 1671 
1672 1 1672 1673 
1673 1 1673 1674 
1674 2 1672 1674 
1675 1 1675 1676 
1676 1 1676 1677 
1677 2 1675 1677 
1678 1 1678 1679 
1679 1 1679 1680 
1680 2 1678 1680 
1681 1 1681 1682 
1682 1 1682 1683 
1683 2 1681 1683 
1684 1 1684 1685 
1685 1 1685 1686 
1686 2 1684 1686 
1687 1 1687 1688 
1688 1 1688 1689 
1689 2 1687 1689 
1690 1 1690 1691 
1691 1 1691 1692 
1692 2 1690 1692 
1693 1 1693 1694 
1694 1 1694 1695 
1695 2 1693 1695 
1696 1 1696 1697 
1697 1 1697 1698 
1698 2 1696 1698 
1699 1 1699 1700 
1700 1 1700 1701 
1701 2 1699 1701 
1702 1 1702 1703 
1703 1 1703 1704 
1704 2 1702 1704 
1705 1 1705 1706 
1706 1 1706 1707 
1707 2 1705 1707 
1708 1 1708 1709 
1709 1 1709 1710 
1710 2 1708 1710 
1711 1 1711 1712 
1712 1 1712 1713 
1713 2 1711 1713 
1714 1 1714 1715 
1715 1 1715 1716 
1716 2 1714 1716 
1717 1 1717 1718 
1718 1 1718 1719 
1719 2 1717 1719 
1720 1 1720 1721 
1721 1 1721 1722 
1722 2 1720 1722 
1723 1 1723 1724 
1724 1 1724 1725 
1725 2 1723 1725 
1726 1 1726 1727 
1727 1 1727 1728 
1728 2 1726 1728 
1729 1 1729 1730 
1730 1 1730 1731 
1731 2 1729 1731 
1732 1 1732 1733 
1733 1 1733 1734 
1734 2 1732 1734 
1735 1 1735 1736 
1736 1 1736 1737 
1737 2 1735 1737 
1738 1 1738 1739 
1739 1 1739 1740 
1740 2 1738 1740 
1741 1 1741 1742 
1742 1 1742 1743 
1743 2 1741 1743 
1744 1 1744 1745 
1745 1 1745 1746 
1746 2 1744 1746 
1747 1 1747 1748 
1748 1 1748 1749 
1749 2 1747 1749 
1750 1 1750 1751 
1751 1 1751 1752 
1752 2 1750 1752 
1753 1 1753 1754 
1754 1 1754 1755 
1755 2 1753 1755 
1756 1 1756 1757 
1757 1 1757 1758 
1758 2 1756 1758 
1759 1 1759 1760 
1760 1 1760 1761 
1761 2 1759 1761 
1762 1 1762 1763 
1763 1 1763 1764 
1764 2 1762 1764 
1765 1 1765 1766 
1766 1 1766 1767 
1767 2 1765 1767 
1768 1 1768 1769 
1769 1 1769 1770 
1770 2 1768 1770 
1771 1 1771 1772 
1772 1 1772 1773 
1773 2 1771 1773 
1774 1 1774 1775 
1775 1 1775 1776 
1776 2 1774 1776 
1777 1 1777 1778 
1778 1 1778 1779 
1779 2 1777 1779 
1780 1 1780 1781 
1781 1 1781 1782 
1782 2 1780 1782 
1783 1 1783 1784 
1784 1 1784 1785 
1785 2 1783 1785 
1786 1 1786 1787 
1787 1 1787 1788 
1788 2 1786 1788 
1789 1 1789 1790 
1790 1 1790 1791 
1791 2 1789 1791 
1792 1 1792 1793 
1793 1 1793 1794 
1794 2 1792 1794 
1795 1 1795 1796 
1796 1 1796 1797 
1797 2 1795 1797 
1798 1 1798 1799 
1799 1 1799 1800 
1800 2 1798 1800 
1801 1 1801 1802 
1802 1 1802 1803 
1803 2 1801 1803 
1804 1 1804 1805 
1805 1 1805 1806 
1806 2 1804 1806 
1807 1 1807 1808 
1808 1 1808 1809 
1809 2 1807 1809 
1810 1 1810 1811 
1811 1 1811 1812 
1812 2 1810 1812 
1813 1 1813 1814 
1814 1 1814 1815 
1815 2 1813 1815 
1816 1 1816 1817 
1817 1 1817 1818 
1818 2 1816 1818 
1819 1 1819 1820 
1820 1 1820 1821 
1821 2 1819 1821 
1822 1 1822 1823 
1823 1 1823 1824 
1824 2 1822 1824 
1825 1 1825 1826 
1826 1 1826 1827 
1827 2 1825 1827 
1828 1 1828 1829 
1829 1 1829 1830 
1830 2 1828 1830 
1831 1 1831 1832 
1832 1 1832 1833 
1833 2 1831 1833 
1834 1 1834 1835 
1835 1 1835 1836 
1836 2 1834 1836 
1837 1 1837 1838 
1838 1 1838 1839 
1839 2 1837 1839 
1840 1 1840 1841 
1841 1 1841 1842 
1842 2 1840 1842 
1843 1 1843 1844 
1844 1 1844 1845 
1845 2 1843 1845 
1846 1 1846 1847 
1847 1 1847 1848 
1848 2 1846 1848 
1849 1 1849 1850 
1850 1 1850 1851 
1851 2 1849 1851 
1852 1 1852 1853 
1853 1 1853 1854 
1854 2 1852 1854 
1855 1 1855 1856 
1856 1 1856 1857 
1857 2 1855 1857 
1858 1 1858 1859 
1859 1 1859 1860 
1860 2 1858 1860 
1861 1 1861 1862 
1862 1 1862 1863 
1863 2 1861 1863 
1864 1 1864 1865 
1865 1 1865 1866 
1866 2 1864 1866 
1867 1 1867 1868 
1868 1 1868 1869 
1869 2 1867 1869 
1870 1 1870 1871 
1871 1 1871 1872 
1872 2 1870 1872 
1873 1 1873 1874 
1874 1 1874 1875 
1875 2 1873 1875 
1876 1 1876 1877 
1877 1 1877 1878 
1878 2 1876 1878 
1879 1 1879 1880 
1880 1 1880 1881 
1881 2 1879 1881 
1882 1 1882 1883 
1883 1 1883 1884 
1884 2 1882 1884 
1885 1 1885 1886 
1886 1 1886 1887 
1887 2 1885 1887 
1888 1 1888 1889 
1889 1 1889 1890 
1890 2 1888 1890 
1891 1 1891 1892 
1892 1 1892 1893 
1893 2 1891 1893 
1894 1 1894 1895 
1895 1 1895 1896 
1896 2 1894 1896 
1897 1 1897 1898 
1898 1 1898 1899 
1899 2 1897 1899 
1900 1 1900 1901 
1901 1 1901 1902 
1902 2 1900 1902 
1903 1 1903 1904 
1904 1 1904 1905 
1905 2 1903 1905 
1906 1 1906 1907 
1907 1 1907 1908 
1908 2 1906 1908 
1909 1 1909 1910 
1910 1 1910 1911 
1911 2 1909 1911 
1912 1 1912 1913 
1913 1 1913 1914 
1914 2 1912 1914 
1915 1 1915 1916 
1916 1 1916 1917 
1917 2 1915 1917 
1918 1 1918 1919 
1919 1 1919 1920 
1920 2 1918 1920 
1921 1 1921 1922 
1922 1 1922 1923 
1923 2 1921 1923 
1924 1 1924 1925 
1925 1 1925 1926 
1926 2 1924 1926 
1927 1 1927 1928 
1928 1 1928 1929 
1929 2 1927 1929 
1930 1 1930 1931 
1931 1 1931 1932 
1932 2 1930 1932 
1933 1 1933 1934 
1934 1 1934 1935 
1935 2 1933 1935 
1936 1 1936 1937 
1937 1 1937 1938 
1938 2 1936 1938 
1939 1 1939 1940 
1940 1 1940 1941 
1941 2 1939 1941 
1942 1 1942 1943 
1943 1 1943 1944 
1944 2 1942 1944 
1945 1 1945 1946 
1946 1 1946 1947 
1947 2 1945 1947 
1948 1 1948 1949 
1949 1 1949 1950 
1950 2 1948 1950 
1951 1 1951 1952 
1952 1 1952 1953 
1953 2 1951 1953 
1954 1 1954 1955 
1955 1 1955 1956 
1956 2 1954 1956 
1957 1 1957 1958 
1958 1 1958 1959 
1959 2 1957 1959 
1960 1 1960 1961 
1961 1 1961 1962 
1962 2 1960 1962 
1963 1 1963 1964 
1964 1 1964 1965 
1965 2 1963 1965 
1966 1 1966 1967 
1967 1 1967 1968 
1968 2 1966 1968 
1969 1 1969 1970 
1970 1 1970 1971 
1971 2 1969 1971 
1972 1 1972 1973 
1973 1 1973 1974 
1974 2 1972 1974 
1975 1 1975 1976 
1976 1 1976 1977 
1977 2 1975 1977 
1978 1 1978 1979 
1979 1 1979 1980 
1980 2 1978 1980 
1981 1 1981 1982 
1982 1 1982 1983 
1983 2 1981 1983 
1984 1 1984 1985 
1985 1 1985 1986 
1986 2 1984 1986 
1987 1 1987 1988 
1988 1 1988 1989 
1989 2 1987 1989 
1990 1 1990 1991 
1991 1 1991 1992 
1992 2 1990 1992 
1993 1 1993 1994 
1994 1 1994 1995 
1995 2 1993 1995 
1996 1 1996 1997 
1997 1 1997 1998 
1998 2 1996 1998 
1999 1 1999 2000 
2000 1 2000 2001 
2001 2 1999 2001 
2002 1 2002 2003 
2003 1 2003 2004 
2004 2 2002 2004 
2005 1 2005 2006 
2006 1 2006 2007 
2007 2 2005 2007 
2008 1 2008 2009 
2009 1 2009 2010 
2010 2 2008 2010 
2011 1 2011 2012 
2012 1 2012 2013 
2013 2 2011 2013 
2014 1 2014 2015 
2015 1 2015 2016 
2016 2 2014 2016 
2017 1 2017 2018 
2018 1 2018 2019 
2019 2 2017 2019 
2020 1 2020 2021 
2021 1 2021 2022 
2022 2 2020 2022 
2023 1 2023 2024 
2024 1 2024 2025 
2025 2 2023 2025 
2026 1 2026 2027 
2027 1 2027 2028 
2028 2 2026 2028 
2029 1 2029 2030 
2030 1 2030 2031 
2031 2 2029 2031 
2032 1 2032 2033 
2033 1 2033 2034 
2034 2 2032 2034 
2035 1 2035 2036 
2036 1 2036 2037 
2037 2 2035 2037 
2038 1 2038 2039 
2039 1 2039 2040 
2040 2 2038 2040 
2041 1 2041 2042 
2042 1 2042 2043 
2043 2 2041 2043 
2044 1 2044 2045 
2045 1 2045 2046 
2046 2 2044 2046 
2047 1 2047 2048 
2048 1 2048 2049 
2049 2 2047 2049 
2050 1 2050 2051 
2051 1 2051 2052 
2052 2 2050 2052 
2053 1 2053 2054 
2054 1 2054 2055 
2055 2 2053 2055 
2056 1 2056 2057 
2057 1 2057 2058 
2058 2 2056 2058 
2059 1 2059 2060 
2060 1 2060 2061 
2061 2 2059 2061 
2062 1 2062 2063 
2063 1 2063 2064 
2064 2 2062 2064 
2065 1 2065 2066 
2066 1 2066 2067 
2067 2 2065 2067 
2068 1 2068 2069 
2069 1 2069 2070 
2070 2 2068 2070 
2071 1 2071 2072 
2072 1 2072 2073 
2073 2 2071 2073 
2074 1 2074 2075 
2075 1 2075 2076 
2076 2 2074 2076 
2077 1 2077 2078 
2078 1 2078 2079 
2079 2 2077 2079 
2080 1 2080 2081 
2081 1 2081 2082 
2082 2 2080 2082 
2083 1 2083 2084 
2084 1 2084 2085 
2085 2 2083 2085 
2086 1 2086 2087 
2087 1 2087 2088 
2088 2 2086 2088 
2089 1 2089 2090 
2090 1 2090 2091 
2091 2 2089 2091 
2092 1 2092 2093 
2093 1 2093 2094 
2094 2 2092 2094 
2095 1 2095 2096 
2096 1 2096 2097 
2097 2 2095 2097 
2098 1 2098 2099 
2099 1 2099 2100 
2100 2 2098 2100 
2101 1 2101 2102 
2102 1 2102 2103 
2103 2 2101 2103 
2104 1 2104 2105 
2105 1 2105 2106 
2106 2 2104 2106 
2107 1 2107 2108 
2108 1 2108 2109 
2109 2 2107 2109 
2110 1 2110 2111 
2111 1 2111 2112 
2112 2 2110 2112 
2113 1 2113 2114 
2114 1 2114 2115 
2115 2 2113 2115 
2116 1 2116 2117 
2117 1 2117 2118 
2118 2 2116 2118 
2119 1 2119 2120 
2120 1 2120 2121 
2121 2 2119 2121 
2122 1 2122 2123 
2123 1 2123 2124 
2124 2 2122 2124 
2125 1 2125 2126 
2126 1 2126 2127 
2127 2 2125 2127 
2128 1 2128 2129 
2129 1 2129 2130 
2130 2 2128 2130 
2131 1 2131 2132 
2132 1 2132 2133 
2133 2 2131 2133 
2134 1 2134 2135 
2135 1 2135 2136 
2136 2 2134 2136 
2137 1 2137 2138 
2138 1 2138 2139 
2139 2 2137 2139 
2140 1 2140 2141 
2141 1 2141 2142 
2142 2 2140 2142 
2143 1 2143 2144 
2144 1 2144 2145 
2145 2 2143 2145 
2146 1 2146 2147 
2147 1 2147 2148 
2148 2 2146 2148 
2149 1 2149 2150 
2150 1 2150 2151 
2151 2 2149 2151 
2152 1 2152 2153 
2153 1 2153 2154 
2154 2 2152 2154 
2155 1 2155 2156 
2156 1 2156 2157 
2157 2 2155 2157 
2158 1 2158 2159 
2159 1 2159 2160 
2160 2 2158 2160 
2161 1 2161 2162 
2162 1 2162 2163 
2163 2 2161 2163 
2164 1 2164 2165 
2165 1 2165 2166 
2166 2 2164 2166 
2167 1 2167 2168 
2168 1 2168 2169 
2169 2 2167 2169 
2170 1 2170 2171 
2171 1 2171 2172 
2172 2 2170 2172 
2173 1 2173 2174 
2174 1 2174 2175 
2175 2 2173 2175 
2176 1 2176 2177 
2177 1 2177 2178 
2178 2 2176 2178 
2179 1 2179 2180 
2180 1 2180 2181 
2181 2 2179 2181 
2182 1 2182 2183 
2183 1 2183 2184 
2184 2 2182 2184 
2185 1 2185 2186 
2186 1 2186 2187 
2187 2 2185 2187 
2188 1 2188 2189 
2189 1 2189 2190 
2190 2 2188 2190 
2191 1 2191 2192 
2192 1 2192 2193 
2193 2 2191 2193 
2194 1 2194 2195 
2195 1 2195 2196 
2196 2 2194 2196 
2197 1 2197 2198 
2198 1 2198 2199 
2199 2 2197 2199 
2200 1 2200 2201 
2201 1 2201 2202 
2202 2 2200 2202 
2203 1 2203 2204 
2204 1 2204 2205 
2205 2 2203 2205 
2206 1 2206 2207 
2207 1 2207 2208 
2208 2 2206 2208 
2209 1 2209 2210 
2210 1 2210 2211 
2211 2 2209 2211 
2212 1 2212 2213 
2213 1 2213 2214 
2214 2 2212 2214 
2215 1 2215 2216 
2216 1 2216 2217 
2217 2 2215 2217 
2218 1 2218 2219 
2219 1 2219 2220 
2220 2 2218 2220 
2221 1 2221 2222 
2222 1 2222 2223 
2223 2 2221 2223 
2224 1 2224 2225 
2225 1 2225 2226 
2226 2 2224 2226 
2227 1 2227 2228 
2228 1 2228 2229 
2229 2 2227 2229 
2230 1 2230 2231 
2231 1 2231 2232 
2232 2 2230 2232 
2233 1 2233 2234 
2234 1 2234 2235 
2235 2 2233 2235 
2236 1 2236 2237 
2237 1 2237 2238 
2238 2 2236 2238 
2239 1 2239 2240 
2240 1 2240 2241 
2241 2 2239 2241 
2242 1 2242 2243 
2243 1 2243 2244 
2244 2 2242 2244 
2245 1 2245 2246 
2246 1 2246 2247 
2247 2 2245 2247 
2248 1 2248 2249 
2249 1 2249 2250 
2250 2 2248 2250 
2251 1 2251 2252 
2252 1 2252 2253 
2253 2 2251 2253 
2254 1 2254 2255 
2255 1 2255 2256 
2256 2 2254 2256 
2257 1 2257 2258 
2258 1 2258 2259 
2259 2 2257 2259 
2260 1 2260 2261 
2261 1 2261 2262 
2262 2 2260 2262 
2263 1 2263 2264 
2264 1 2264 2265 
2265 2 2263 2265 
2266 1 2266 2267 
2267 1 2267 2268 
2268 2 2266 2268 
2269 1 2269 2270 
2270 1 2270 2271 
2271 2 2269 2271 
2272 1 2272 2273 
2273 1 2273 2274 
2274 2 2272 2274 
2275 1 2275 2276 
2276 1 2276 2277 
2277 2 2275 2277 
2278 1 2278 2279 
2279 1 2279 2280 
2280 2 2278 2280 
2281 1 2281 2282 
2282 1 2282 2283 
2283 2 2281 2283 
2284 1 2284 2285 
2285 1 2285 2286 
2286 2 2284 2286 
2287 1 2287 2288 
2288 1 2288 2289 
2289 2 2287 2289 
2290 1 2290 2291 
2291 1 2291 2292 
2292 2 2290 2292 
2293 1 2293 2294 
2294 1 2294 2295 
2295 2 2293 2295 
2296 1 2296 2297 
2297 1 2297 2298 
2298 2 2296 2298 
2299 1 2299 2300 
2300 1 2300 2301 
2301 2 2299 2301 
2302 1 2302 2303 
2303 1 2303 2304 
2304 2 2302 2304 
2305 1 2305 2306 
2306 1 2306 2307 
2307 2 2305 2307 
2308 1 2308 2309 
2309 1 2309 2310 
2310 2 2308 2310 
2311 1 2311 2312 
2312 1 2312 2313 
2313 2 2311 2313 
2314 1 2314 2315 
2315 1 2315 2316 
2316 2 2314 2316 
2317 1 2317 2318 
2318 1 2318 2319 
2319 2 2317 2319 
2320 1 2320 2321 
2321 1 2321 2322 
2322 2 2320 2322 
2323 1 2323 2324 
2324 1 2324 2325 
2325 2 2323 2325 
2326 1 2326 2327 
2327 1 2327 2328 
2328 2 2326 2328 
2329 1 2329 2330 
2330 1 2330 2331 
2331 2 2329 2331 
2332 1 2332 2333 
2333 1 2333 2334 
2334 2 2332 2334 
2335 1 2335 2336 
2336 1 2336 2337 
2337 2 2335 2337 
2338 1 2338 2339 
2339 1 2339 2340 
2340 2 2338 2340 
2341 1 2341 2342 
2342 1 2342 2343 
2343 2 2341 2343 
2344 1 2344 2345 
2345 1 2345 2346 
2346 2 2344 2346 
2347 1 2347 2348 
2348 1 2348 2349 
2349 2 2347 2349 
2350 1 2350 2351 
2351 1 2351 2352 
2352 2 2350 2352 
2353 1 2353 2354 
2354 1 2354 2355 
2355 2 2353 2355 
2356 1 2356 2357 
2357 1 2357 2358 
2358 2 2356 2358 
2359 1 2359 2360 
2360 1 2360 2361 
2361 2 2359 2361 
2362 1 2362 2363 
2363 1 2363 2364 
2364 2 2362 2364 
2365 1 2365 2366 
2366 1 2366 2367 
2367 2 2365 2367 
2368 1 2368 2369 
2369 1 2369 2370 
2370 2 2368 2370 
2371 1 2371 2372 
2372 1 2372 2373 
2373 2 2371 2373 
2374 1 2374 2375 
2375 1 2375 2376 
2376 2 2374 2376 
2377 1 2377 2378 
2378 1 2378 2379 
2379 2 2377 2379 
2380 1 2380 2381 
2381 1 2381 2382 
2382 2 2380 2382 
2383 1 2383 2384 
2384 1 2384 2385 
2385 2 2383 2385 
2386 1 2386 2387 
2387 1 2387 2388 
2388 2 2386 2388 
2389 1 2389 2390 
2390 1 2390 2391 
2391 2 2389 2391 
2392 1 2392 2393 
2393 1 2393 2394 
2394 2 2392 2394 
2395 1 2395 2396 
2396 1 2396 2397 
2397 2 2395 2397 
2398 1 2398 2399 
2399 1 2399 2400 
2400 2 2398 2400 
2401 1 2401 2402 
2402 1 2402 2403 
2403 2 2401 2403 
2404 1 2404 2405 
2405 1 2405 2406 
2406 2 2404 2406 
2407 1 2407 2408 
2408 1 2408 2409 
2409 2 2407 2409 
2410 1 2410 2411 
2411 1 2411 2412 
2412 2 2410 2412 
2413 1 2413 2414 
2414 1 2414 2415 
2415 2 2413 2415 
2416 1 2416 2417 
2417 1 2417 2418 
2418 2 2416 2418 
2419 1 2419 2420 
2420 1 2420 2421 
2421 2 2419 2421 
2422 1 2422 2423 
2423 1 2423 2424 
2424 2 2422 2424 
2425 1 2425 2426 
2426 1 2426 2427 
2427 2 2425 2427 
2428 1 2428 2429 
2429 1 2429 2430 
2430 2 2428 2430 
2431 1 2431 2432 
2432 1 2432 2433 
2433 2 2431 2433 
2434 1 2434 2435 
2435 1 2435 2436 
2436 2 2434 2436 
2437 1 2437 2438 
2438 1 2438 2439 
2439 2 2437 2439 
2440 1 2440 2441 
2441 1 2441 2442 
2442 2 2440 2442 
2443 1 2443 2444 
2444 1 2444 2445 
2445 2 2443 2445 
2446 1 2446 2447 
2447 1 2447 2448 
2448 2 2446 2448 
2449 1 2449 2450 
2450 1 2450 2451 
2451 2 2449 2451 
2452 1 2452 2453 
2453 1 2453 2454 
2454 2 2452 2454 
2455 1 2455 2456 
2456 1 2456 2457 
2457 2 2455 2457 
2458 1 2458 2459 
2459 1 2459 2460 
2460 2 2458 2460 
2461 1 2461 2462 
2462 1 2462 2463 
2463 2 2461 2463 
2464 1 2464 2465 
2465 1 2465 2466 
2466 2 2464 2466 
2467 1 2467 2468 
2468 1 2468 2469 
2469 2 2467 2469 
2470 1 2470 2471 
2471 1 2471 2472 
2472 2 2470 2472 
2473 1 2473 2474 
2474 1 2474 2475 
2475 2 2473 2475 
2476 1 2476 2477 
2477 1 2477 2478 
2478 2 2476 2478 
2479 1 2479 2480 
2480 1 2480 2481 
2481 2 2479 2481 
2482 1 2482 2483 
2483 1 2483 2484 
2484 2 2482 2484 
2485 1 2485 2486 
2486 1 2486 2487 
2487 2 2485 2487 
2488 1 2488 2489 
2489 1 2489 2490 
2490 2 2488 2490 
2491 1 2491 2492 
2492 1 2492 2493 
2493 2 2491 2493 
2494 1 2494 2495 
2495 1 2495 2496 
2496 2 2494 2496 
2497 1 2497 2498 
2498 1 2498 2499 
2499 2 2497 2499 
2500 1 2500 2501 
2501 1 2501 2502 
2502 2 2500 2502 
2503 1 2503 2504 
2504 1 2504 2505 
2505 2 2503 2505 
2506 1 2506 2507 
2507 1 2507 2508 
2508 2 2506 2508 
2509 1 2509 2510 
2510 1 2510 2511 
2511 2 2509 2511 
2512 1 2512 2513 
2513 1 2513 2514 
2514 2 2512 2514 
2515 1 2515 2516 
2516 1 2516 2517 
2517 2 2515 2517 
2518 1 2518 2519 
2519 1 2519 2520 
2520 2 2518 2520 
2521 1 2521 2522 
2522 1 2522 2523 
2523 2 2521 2523 
2524 1 2524 2525 
2525 1 2525 2526 
2526 2 2524 2526 
2527 1 2527 2528 
2528 1 2528 2529 
2529 2 2527 2529 
2530 1 2530 2531 
2531 1 2531 2532 
2532 2 2530 2532 
2533 1 2533 2534 
2534 1 2534 2535 
2535 2 2533 2535 
2536 1 2536 2537 
2537 1 2537 2538 
2538 2 2536 2538 
2539 1 2539 2540 
2540 1 2540 2541 
2541 2 2539 2541 
2542 1 2542 2543 
2543 1 2543 2544 
2544 2 2542 2544 
2545 1 2545 2546 
2546 1 2546 2547 
2547 2 2545 2547 
2548 1 2548 2549 
2549 1 2549 2550 
2550 2 2548 2550 
2551 1 2551 2552 
2552 1 2552 2553 
2553 2 2551 2553 
2554 1 2554 2555 
2555 1 2555 2556 
2556 2 2554 2556 
2557 1 2557 2558 
2558 1 2558 2559 
2559 2 2557 2559 
2560 1 2560 2561 
2561 1 2561 2562 
2562 2 2560 2562 
2563 1 2563 2564 
2564 1 2564 2565 
2565 2 2563 2565 
2566 1 2566 2567 
2567 1 2567 2568 
2568 2 2566 2568 
2569 1 2569 2570 
2570 1 2570 2571 
2571 2 2569 2571 
2572 1 2572 2573 
2573 1 2573 2574 
2574 2 2572 2574 
2575 1 2575 2576 
2576 1 2576 2577 
2577 2 2575 2577 
2578 1 2578 2579 
2579 1 2579 2580 
2580 2 2578 2580 
2581 1 2581 2582 
2582 1 2582 2583 
2583 2 2581 2583 
2584 1 2584 2585 
2585 1 2585 2586 
2586 2 2584 2586 
2587 1 2587 2588 
2588 1 2588 2589 
2589 2 2587 2589 
2590 1 2590 2591 
2591 1 2591 2592 
2592 2 2590 2592 
2593 1 2593 2594 
2594 1 2594 2595 
2595 2 2593 2595 
2596 1 2596 2597 
2597 1 2597 2598 
2598 2 2596 2598 
2599 1 2599 2600 
2600 1 2600 2601 
2601 2 2599 2601 
2602 1 2602 2603 
2603 1 2603 2604 
2604 2 2602 2604 
2605 1 2605 2606 
2606 1 2606 2607 
2607 2 2605 2607 
2608 1 2608 2609 
2609 1 2609 2610 
2610 2 2608 2610 
2611 1 2611 2612 
2612 1 2612 2613 
2613 2 2611 2613 
2614 1 2614 2615 
2615 1 2615 2616 
2616 2 2614 2616 
2617 1 2617 2618 
2618 1 2618 2619 
2619 2 2617 2619 
2620 1 2620 2621 
2621 1 2621 2622 
2622 2 2620 2622 
2623 1 2623 2624 
2624 1 2624 2625 
2625 2 2623 2625 
2626 1 2626 2627 
2627 1 2627 2628 
2628 2 2626 2628 
2629 1 2629 2630 
2630 1 2630 2631 
2631 2 2629 2631 
2632 1 2632 2633 
2633 1 2633 2634 
2634 2 2632 2634 
2635 1 2635 2636 
2636 1 2636 2637 
2637 2 2635 2637 
2638 1 2638 2639 
2639 1 2639 2640 
2640 2 2638 2640 
2641 1 2641 2642 
2642 1 2642 2643 
2643 2 2641 2643 
2644 1 2644 2645 
2645 1 2645 2646 
2646 2 2644 2646 
2647 1 2647 2648 
2648 1 2648 2649 
2649 2 2647 2649 
2650 1 2650 2651 
2651 1 2651 2652 
2652 2 2650 2652 
2653 1 2653 2654 
2654 1 2654 2655 
2655 2 2653 2655 
2656 1 2656 2657 
2657 1 2657 2658 
2658 2 2656 2658 
2659 1 2659 2660 
2660 1 2660 2661 
2661 2 2659 2661 
2662 1 2662 2663 
2663 1 2663 2664 
2664 2 2662 2664 
2665 1 2665 2666 
2666 1 2666 2667 
2667 2 2665 2667 
2668 1 2668 2669 
2669 1 2669 2670 
2670 2 2668 2670 
2671 1 2671 2672 
2672 1 2672 2673 
2673 2 2671 2673 
2674 1 2674 2675 
2675 1 2675 2676 
2676 2 2674 2676 
2677 1 2677 2678 
2678 1 2678 2679 
2679 2 2677 2679 
2680 1 2680 2681 
2681 1 2681 2682 
2682 2 2680 2682 
2683 1 2683 2684 
2684 1 2684 2685 
2685 2 2683 2685 
2686 1 2686 2687 
2687 1 2687 2688 
2688 2 2686 2688 
2689 1 2689 2690 
2690 1 2690 2691 
2691 2 2689 2691 
2692 1 2692 2693 
2693 1 2693 2694 
2694 2 2692 2694 
2695 1 2695 2696 
2696 1 2696 2697 
2697 2 2695 2697 
2698 1 2698 2699 
2699 1 2699 2700 
2700 2 2698 2700 
2701 1 2701 2702 
2702 1 2702 2703 
2703 2 2701 2703 
2704 1 2704 2705 
2705 1 2705 2706 
2706 2 2704 2706 
2707 1 2707 2708 
2708 1 2708 2709 
2709 2 2707 2709 
2710 1 2710 2711 
2711 1 2711 2712 
2712 2 2710 2712 
2713 1 2713 2714 
2714 1 2714 2715 
2715 2 2713 2715 
2716 1 2716 2717 
2717 1 2717 2718 
2718 2 2716 2718 
2719 1 2719 2720 
2720 1 2720 2721 
2721 2 2719 2721 
2722 1 2722 2723 
2723 1 2723 2724 
2724 2 2722 2724 
2725 1 2725 2726 
2726 1 2726 2727 
2727 2 2725 2727 
2728 1 2728 2729 
2729 1 2729 2730 
2730 2 2728 2730 
2731 1 2731 2732 
2732 1 2732 2733 
2733 2 2731 2733 
2734 1 2734 2735 
2735 1 2735 2736 
2736 2 2734 2736 
2737 1 2737 2738 
2738 1 2738 2739 
2739 2 2737 2739 
2740 1 2740 2741 
2741 1 2741 2742 
2742 2 2740 2742 
2743 1 2743 2744 
2744 1 2744 2745 
2745 2 2743 2745 
2746 1 2746 2747 
2747 1 2747 2748 
2748 2 2746 2748 
2749 1 2749 2750 
2750 1 2750 2751 
2751 2 2749 2751 
2752 1 2752 2753 
2753 1 2753 2754 
2754 2 2752 2754 
2755 1 2755 2756 
2756 1 2756 2757 
2757 2 2755 2757 
2758 1 2758 2759 
2759 1 2759 2760 
2760 2 2758 2760 
2761 1 2761 2762 
2762 1 2762 2763 
2763 2 2761 2763 
2764 1 2764 2765 
2765 1 2765 2766 
2766 2 2764 2766 
2767 1 2767 2768 
2768 1 2768 2769 
2769 2 2767 2769 
2770 1 2770 2771 
2771 1 2771 2772 
2772 2 2770 2772 
2773 1 2773 2774 
2774 1 2774 2775 
2775 2 2773 2775 
2776 1 2776 2777 
2777 1 2777 2778 
2778 2 2776 2778 
2779 1 2779 2780 
2780 1 2780 2781 
2781 2 2779 2781 
2782 1 2782 2783 
2783 1 2783 2784 
2784 2 2782 2784 
2785 1 2785 2786 
2786 1 2786 2787 
2787 2 2785 2787 
2788 1 2788 2789 
2789 1 2789 2790 
2790 2 2788 2790 
2791 1 2791 2792 
2792 1 2792 2793 
2793 2 2791 2793 
2794 1 2794 2795 
2795 1 2795 2796 
2796 2 2794 2796 
2797 1 2797 2798 
2798 1 2798 2799 
2799 2 2797 2799 
2800 1 2800 2801 
2801 1 2801 2802 
2802 2 2800 2802 
2803 1 2803 2804 
2804 1 2804 2805 
2805 2 2803 2805 
2806 1 2806 2807 
2807 1 2807 2808 
2808 2 2806 2808 
2809 1 2809 2810 
2810 1 2810 2811 
2811 2 2809 2811 
2812 1 2812 2813 
2813 1 2813 2814 
2814 2 2812 2814 
2815 1 2815 2816 
2816 1 2816 2817 
2817 2 2815 2817 
2818 1 2818 2819 
2819 1 2819 2820 
2820 2 2818 2820 
2821 1 2821 2822 
2822 1 2822 2823 
2823 2 2821 2823 
2824 1 2824 2825 
2825 1 2825 2826 
2826 2 2824 2826 
2827 1 2827 2828 
2828 1 2828 2829 
2829 2 2827 2829 
2830 1 2830 2831 
2831 1 2831 2832 
2832 2 2830 2832 
2833 1 2833 2834 
2834 1 2834 2835 
2835 2 2833 2835 
2836 1 2836 2837 
2837 1 2837 2838 
2838 2 2836 2838 
2839 1 2839 2840 
2840 1 2840 2841 
2841 2 2839 2841 
2842 1 2842 2843 
2843 1 2843 2844 
2844 2 2842 2844 
2845 1 2845 2846 
2846 1 2846 2847 
2847 2 2845 2847 
2848 1 2848 2849 
2849 1 2849 2850 
2850 2 2848 2850 
2851 1 2851 2852 
2852 1 2852 2853 
2853 2 2851 2853 
2854 1 2854 2855 
2855 1 2855 2856 
2856 2 2854 2856 
2857 1 2857 2858 
2858 1 2858 2859 
2859 2 2857 2859 
2860 1 2860 2861 
2861 1 2861 2862 
2862 2 2860 2862 
2863 1 2863 2864 
2864 1 2864 2865 
2865 2 2863 2865 
2866 1 2866 2867 
2867 1 2867 2868 
2868 2 2866 2868 
2869 1 2869 2870 
2870 1 2870 2871 
2871 2 2869 2871 
2872 1 2872 2873 
2873 1 2873 2874 
2874 2 2872 2874 
2875 1 2875 2876 
2876 1 2876 2877 
2877 2 2875 2877 
2878 1 2878 2879 
2879 1 2879 2880 
2880 2 2878 2880 
2881 1 2881 2882 
2882 1 2882 2883 
2883 2 2881 2883 
2884 1 2884 2885 
2885 1 2885 2886 
2886 2 2884 2886 
2887 1 2887 2888 
2888 1 2888 2889 
2889 2 2887 2889 
2890 1 2890 2891 
2891 1 2891 2892 
2892 2 2890 2892 
2893 1 2893 2894 
2894 1 2894 2895 
2895 2 2893 2895 
2896 1 2896 2897 
2897 1 2897 2898 
2898 2 2896 2898 
2899 1 2899 2900 
2900 1 2900 2901 
2901 2 2899 2901 
2902 1 2902 2903 
2903 1 2903 2904 
2904 2 2902 2904 
2905 1 2905 2906 
2906 1 2906 2907 
2907 2 2905 2907 
2908 1 2908 2909 
2909 1 2909 2910 
2910 2 2908 2910 
2911 1 2911 2912 
2912 1 2912 2913 
2913 2 2911 2913 
2914 1 2914 2915 
2915 1 2915 2916 
2916 2 2914 2916 
2917 1 2917 2918 
2918 1 2918 2919 
2919 2 2917 2919 
2920 1 2920 2921 
2921 1 2921 2922 
2922 2 2920 2922 
2923 1 2923 2924 
2924 1 2924 2925 
2925 2 2923 2925 
2926 1 2926 2927 
2927 1 2927 2928 
2928 2 2926 2928 
2929 1 2929 2930 
2930 1 2930 2931 
2931 2 2929 2931 
2932 1 2932 2933 
2933 1 2933 2934 
2934 2 2932 2934 
2935 1 2935 2936 
2936 1 2936 2937 
2937 2 2935 2937 
2938 1 2938 2939 
2939 1 2939 2940 
2940 2 2938 2940 
2941 1 2941 2942 
2942 1 2942 2943 
2943 2 2941 2943 
2944 1 2944 2945 
2945 1 2945 2946 
2946 2 2944 2946 
2947 1 2947 2948 
2948 1 2948 2949 
2949 2 2947 2949 
2950 1 2950 2951 
2951 1 2951 2952 
2952 2 2950 2952 
2953 1 2953 2954 
2954 1 2954 2955 
2955 2 2953 2955 
2956 1 2956 2957 
2957 1 2957 2958 
2958 2 2956 2958 
2959 1 2959 2960 
2960 1 2960 2961 
2961 2 2959 2961 
2962 1 2962 2963 
2963 1 2963 2964 
2964 2 2962 2964 
2965 1 2965 2966 
2966 1 2966 2967 
2967 2 2965 2967 
2968 1 2968 2969 
2969 1 2969 2970 
2970 2 2968 2970 
2971 1 2971 2972 
2972 1 2972 2973 
2973 2 2971 2973 
2974 1 2974 2975 
2975 1 2975 2976 
2976 2 2974 2976 
2977 1 2977 2978 
2978 1 2978 2979 
2979 2 2977 2979 
2980 1 2980 2981 
2981 1 2981 2982 
2982 2 2980 2982 
2983 1 2983 2984 
2984 1 2984 2985 
2985 2 2983 2985 
2986 1 2986 2987 
2987 1 2987 2988 
2988 2 2986 2988 
2989 1 2989 2990 
2990 1 2990 2991 
2991 2 2989 2991 
2992 1 2992 2993 
2993 1 2993 2994 
2994 2 2992 2994 
2995 1 2995 2996 
2996 1 2996 2997 
2997 2 2995 2997 
2998 1 2998 2999 
2999 1 2999 3000 
3000 2 2998 3000 
