# simulation of three bead model with network percolation and
# conformational change.

# here percolation occurs via fix bond/create and unfolding occurs via an angle potential

##########################################

# user input
variable Nsteps         equal 100000
variable Nwrite         equal   100
variable equilTime      equal  0.3 * ${Nsteps}
variable seed           equal 349503
variable tstep          equal  0.001
variable boxLength      equal     lx
variable r_cutoff       equal 1.112462048
##########################################

# configuration
units lj
boundary p p p
atom_style angle         # bead-spring polymer with bond and angle data

read_data network.in extra/bond/per/atom 2 extra/special/per/atom 200

min_style fire
##########################################

#print some system info for analysis

variable Npar equal count(all)

print """
boxLength = ${boxLength}
Npar = ${Npar}
Nsteps = ${Nsteps} + ${equilTime}
Nwrite = ${Nwrite}
equilTime = ${equilTime}
""" file ../analysis/systemData.py

##########################################
# bond potentials

bond_style harmonic
bond_coeff 1 3 ${r_cutoff}   #intramolecular
bond_coeff 2 3 ${r_cutoff}   #intermolecular

##########################################

# count bonds per atom

compute intra all nbond/atom bond/type 1
compute inter all nbond/atom bond/type 2

# keep track of bonds across the system

compute totalbonds all count/type bond
variable totalintra equal c_totalbonds[1]
variable totalinter equal c_totalbonds[2]

#########################################

# find bond id and forces

compute bondedatomid1 all property/local batom1
compute bondedatomid2 all property/local batom2
compute btype all property/local btype

compute bondforce all bond/local fx fy fz
 
##########################################
# print thermodynamic info

variable t equal step*${tstep}

thermo ${Nwrite}

##########################################

# add brownian dynamics for equilibration

fix nvelim all nve/limit 1.0
fix thermoequil all langevin   0.7 1 1.0 ${seed}  # langevin thermostat

angle_style harmonic
angle_coeff 1 1000 60

##########################################

# equilibration. first energy minimization and then equilibration

comm_modify cutoff 6

pair_style soft ${r_cutoff}
pair_coeff * * 5


minimize 1.0e-4 1.0e-6 1000 10000

dump 1 all custom ${Nwrite} ../output/dump.lammpstrj id x y z type mol
dump_modify 1 sort id

timestep 0.0001
run ${equilTime}
unfix nvelim
unfix thermoequil

fix 1 all nve
fix 2 all langevin 1 1 1.0 ${seed}

##########################################

# pair interactions
# shifted lj to be repulsive wca

pair_style hybrid/overlay zero 5 lj/cut ${r_cutoff}

pair_coeff * * lj/cut 1.0 1.0
pair_coeff * * zero 5
pair_modify shift yes

###########################################

# angle stuff

include angleInfo.in
compute angles all angle/local theta
compute angle_pe all angle/local eng

fix percolate all bond/create 1 1 1 ${r_cutoff} 2 molecule inter iparam 2 1 jparam 2 1
##########################################

# simulate

undump 1 
reset_timestep 0

dump 1 all custom ${Nwrite} ../output/dump.lammpstrj id x y z type mol
dump_modify 1 sort id

variable allbonds equal v_totalintra+v_totalinter

fix nbondsfile all print 100 "${allbonds} " file ../output/nbonds.dat screen no
dump bondedatoms all local ${Nwrite} ../output/bondedatoms.dat index c_bondedatomid1 c_bondedatomid2
dump angles all local ${Nwrite} ../output/moleculeangles.dat index c_angles c_angle_pe
timestep ${tstep}
neighbor 1 bin
neigh_modify every 1 delay 2 check yes

run ${Nsteps}
