LAMMPS config file for N 3 bead models

1080 atoms
720 bonds
360 angles
1 atom types
2 bond types
1 angle types

#Sim box size
-10.0 10.0 xlo xhi
-10.0 10.0 ylo yhi
-10.0 10.0 zlo zhi

Masses
#AtomID mass
1  1

Atoms
#atomID moleculeID atomType X Y Z
1 1 1 3.3761963125373176 -9.027546482200012 -5.712507806442145 
2 1 1 3.9324273365373177 -8.064126087885949 -5.712507806442145 
3 1 1 4.488658360537317 -9.027546482200012 -5.712507806442145 
4 2 1 -8.735751573012594 4.610846125420897 3.9385784334375256 
5 2 1 -8.179520549012594 5.574266519734961 3.9385784334375256 
6 2 1 -7.623289525012594 4.610846125420897 3.9385784334375256 
7 3 1 5.060690672926726 6.189159480635091 -6.849851990157288 
8 3 1 5.616921696926726 7.152579874949154 -6.849851990157288 
9 3 1 6.173152720926725 6.189159480635091 -6.849851990157288 
10 4 1 -2.8785785166916313 2.105049097449035 -8.79007026740211 
11 4 1 -2.322347492691631 3.068469491763098 -8.79007026740211 
12 4 1 -1.766116468691631 2.105049097449035 -8.79007026740211 
13 5 1 -1.4161802042098635 1.737801681590607 2.831707403228169 
14 5 1 -0.8599491802098633 2.7012220759046706 2.831707403228169 
15 5 1 -0.3037181562098633 1.737801681590607 2.831707403228169 
16 6 1 5.65135039338528 8.028674451688136 -2.529669265647911 
17 6 1 6.2075814173852795 8.9920948460022 -2.529669265647911 
18 6 1 6.763812441385279 8.028674451688136 -2.529669265647911 
19 7 1 1.6875226783842057 -1.2568083614107268 3.4061311927685214 
20 7 1 2.243753702384206 -0.29338796709666326 3.4061311927685214 
21 7 1 2.799984726384206 -1.2568083614107268 3.4061311927685214 
22 8 1 -1.3247255350337652 6.343280791453601 6.953820291082353 
23 8 1 -0.7684945110337651 7.306701185767665 6.953820291082353 
24 8 1 -0.21226348703376507 6.343280791453601 6.953820291082353 
25 9 1 -7.155492858535233 -4.9283153820151835 3.533071470341069 
26 9 1 -6.599261834535233 -3.96489498770112 3.533071470341069 
27 9 1 -6.0430308105352335 -4.9283153820151835 3.533071470341069 
28 10 1 4.274614248883817 -9.900520903724574 -8.293503411034454 
29 10 1 4.830845272883817 -8.937100509410511 -8.293503411034454 
30 10 1 5.387076296883817 -9.900520903724574 -8.293503411034454 
31 11 1 8.255175345272791 6.950222934930995 6.2333339875285265 
32 11 1 8.811406369272792 7.913643329245058 6.2333339875285265 
33 11 1 9.367637393272792 6.950222934930995 6.2333339875285265 
34 12 1 4.804568446597538 0.8840435536970721 2.2511202027888757 
35 12 1 5.360799470597538 1.8474639480111357 2.2511202027888757 
36 12 1 5.917030494597538 0.8840435536970721 2.2511202027888757 
37 13 1 8.10704314050209 0.9943100393437054 2.923516331359311 
38 13 1 8.663274164502091 1.957730433657769 2.923516331359311 
39 13 1 9.219505188502092 0.9943100393437054 2.923516331359311 
40 14 1 7.483915260965978 -7.4079882937607655 4.7258888333067866 
41 14 1 8.040146284965978 -6.444567899446702 4.7258888333067866 
42 14 1 8.596377308965979 -7.4079882937607655 4.7258888333067866 
43 15 1 -1.9426193435942651 -8.643363587552948 -1.4725306115867296 
44 15 1 -1.386388319594265 -7.679943193238884 -1.4725306115867296 
45 15 1 -0.830157295594265 -8.643363587552948 -1.4725306115867296 
46 16 1 -1.1934608226990853 -2.8852206915871994 7.680571259631563 
47 16 1 -0.6372297986990851 -1.921800297273136 7.680571259631563 
48 16 1 -0.08099877469908512 -2.8852206915871994 7.680571259631563 
49 17 1 -8.730364187111032 1.2626500230628073 1.9077473924919612 
50 17 1 -8.174133163111032 2.226070417376871 1.9077473924919612 
51 17 1 -7.617902139111032 1.2626500230628073 1.9077473924919612 
52 18 1 -6.750354866249878 -3.377807454839507 -0.18928784656973718 
53 18 1 -6.194123842249878 -2.414387060525444 -0.18928784656973718 
54 18 1 -5.637892818249878 -3.377807454839507 -0.18928784656973718 
55 19 1 -3.8884576205755574 7.170448091425616 0.8069044806404566 
56 19 1 -3.3322265965755573 8.13386848573968 0.8069044806404566 
57 19 1 -2.775995572575557 7.170448091425616 0.8069044806404566 
58 20 1 -3.2570405353545193 5.838921498477799 2.507868758589259 
59 20 1 -2.700809511354519 6.802341892791862 2.507868758589259 
60 20 1 -2.144578487354519 5.838921498477799 2.507868758589259 
61 21 1 2.136855227162601 1.3089641088577364 5.601107617414945 
62 21 1 2.693086251162601 2.2723845031718 5.601107617414945 
63 21 1 3.249317275162601 1.3089641088577364 5.601107617414945 
64 22 1 -5.955709664092549 -9.244297561774097 -1.6297018686351095 
65 22 1 -5.399478640092549 -8.280877167460034 -1.6297018686351095 
66 22 1 -4.843247616092549 -9.244297561774097 -1.6297018686351095 
67 23 1 0.6547786280194471 -6.339166149513302 3.2698412746813634 
68 23 1 1.211009652019447 -5.3757457551992385 3.2698412746813634 
69 23 1 1.7672406760194472 -6.339166149513302 3.2698412746813634 
70 24 1 0.3198292945678253 -6.535865577484146 -3.0068527410744537 
71 24 1 0.8760603185678253 -5.572445183170083 -3.0068527410744537 
72 24 1 1.4322913425678254 -6.535865577484146 -3.0068527410744537 
73 25 1 -7.353012525151311 -1.958195476555762 7.447025893489553 
74 25 1 -6.796781501151312 -0.9947750822416985 7.447025893489553 
75 25 1 -6.240550477151312 -1.958195476555762 7.447025893489553 
76 26 1 -3.6630961856920856 -1.3641710536798846 1.1392784729401662 
77 26 1 -3.1068651616920855 -0.400750659365821 1.1392784729401662 
78 26 1 -2.5506341376920854 -1.3641710536798846 1.1392784729401662 
79 27 1 2.7984074835068715 4.449673839728803 4.684789765002588 
80 27 1 3.3546385075068716 5.413094234042866 4.684789765002588 
81 27 1 3.9108695315068718 4.449673839728803 4.684789765002588 
82 28 1 5.388499216535636 -3.5681441897208 -7.995314542260868 
83 28 1 5.944730240535636 -2.604723795406737 -7.995314542260868 
84 28 1 6.500961264535635 -3.5681441897208 -7.995314542260868 
85 29 1 -9.18127411453194 7.722559842347398 4.04398627704054 
86 29 1 -8.625043090531939 8.685980236661461 4.04398627704054 
87 29 1 -8.068812066531938 7.722559842347398 4.04398627704054 
88 30 1 7.66697065374754 5.777524341585787 -1.7225894393940466 
89 30 1 8.22320167774754 6.74094473589985 -1.7225894393940466 
90 30 1 8.77943270174754 5.777524341585787 -1.7225894393940466 
91 31 1 -6.147283450377972 1.0414488731845475 1.7413906290547523 
92 31 1 -5.591052426377972 2.004869267498611 1.7413906290547523 
93 31 1 -5.034821402377973 1.0414488731845475 1.7413906290547523 
94 32 1 1.5160661049879907 -2.394063814259664 3.6137322342117333 
95 32 1 2.072297128987991 -1.4306434199456008 3.6137322342117333 
96 32 1 2.628528152987991 -2.394063814259664 3.6137322342117333 
97 33 1 -5.13891147868369 1.3442542600036516 2.25065182751775 
98 33 1 -4.582680454683691 2.307674654317715 2.25065182751775 
99 33 1 -4.026449430683691 1.3442542600036516 2.25065182751775 
100 34 1 7.805662900862358 -0.22082017064855486 4.536075080767059 
101 34 1 8.361893924862358 0.7426002236655087 4.536075080767059 
102 34 1 8.918124948862358 -0.22082017064855486 4.536075080767059 
103 35 1 3.805717693765175 -2.39901513284625 -5.601789961624507 
104 35 1 4.361948717765175 -1.4355947385321866 -5.601789961624507 
105 35 1 4.918179741765175 -2.39901513284625 -5.601789961624507 
106 36 1 -7.4968538352631775 3.066859323893448 1.1925827338392736 
107 36 1 -6.940622811263178 4.030279718207511 1.1925827338392736 
108 36 1 -6.384391787263178 3.066859323893448 1.1925827338392736 
109 37 1 -5.522484747470575 -2.949789641028219 -1.90500984323383 
110 37 1 -4.966253723470575 -1.9863692467141556 -1.90500984323383 
111 37 1 -4.410022699470575 -2.949789641028219 -1.90500984323383 
112 38 1 1.5411588434256633 -1.7778510198749553 -4.091723611940871 
113 38 1 2.0973898674256635 -0.8144306255608917 -4.091723611940871 
114 38 1 2.6536208914256636 -1.7778510198749553 -4.091723611940871 
115 39 1 0.8889556933480668 -6.816125662796706 -3.6725020853479187 
116 39 1 1.4451867173480668 -5.852705268482643 -3.6725020853479187 
117 39 1 2.001417741348067 -6.816125662796706 -3.6725020853479187 
118 40 1 -3.835786396664426 -0.7283866134824264 1.2822223299948572 
119 40 1 -3.2795553726644258 0.23503378083163717 1.2822223299948572 
120 40 1 -2.7233243486644256 -0.7283866134824264 1.2822223299948572 
121 41 1 7.957220701081879 6.39042952458087 6.227010619465787 
122 41 1 8.513451725081879 7.353849918894934 6.227010619465787 
123 41 1 9.06968274908188 6.39042952458087 6.227010619465787 
124 42 1 3.431020156617015 -9.163210494660337 6.802151708531602 
125 42 1 3.9872511806170152 -8.199790100346274 6.802151708531602 
126 42 1 4.543482204617015 -9.163210494660337 6.802151708531602 
127 43 1 6.671923541251803 0.9131005516026123 8.664320168702353 
128 43 1 7.228154565251803 1.8765209459166758 8.664320168702353 
129 43 1 7.784385589251802 0.9131005516026123 8.664320168702353 
130 44 1 -8.711335169847018 -8.885272384047882 -5.767917933350857 
131 44 1 -8.155104145847018 -7.921851989733819 -5.767917933350857 
132 44 1 -7.598873121847018 -8.885272384047882 -5.767917933350857 
133 45 1 -9.33398919061562 5.019848738250957 3.2263771779424584 
134 45 1 -8.77775816661562 5.98326913256502 3.2263771779424584 
135 45 1 -8.221527142615619 5.019848738250957 3.2263771779424584 
136 46 1 3.409590011525744 2.3002709834371124 -5.116283400720072 
137 46 1 3.965821035525744 3.263691377751176 -5.116283400720072 
138 46 1 4.522052059525744 2.3002709834371124 -5.116283400720072 
139 47 1 -2.9175032281037274 0.8003769030867056 -7.496219918603653 
140 47 1 -2.3612722041037273 1.7637972974007692 -7.496219918603653 
141 47 1 -1.8050411801037272 0.8003769030867056 -7.496219918603653 
142 48 1 5.739369295797988 -1.410024471544052 4.402254498889608 
143 48 1 6.2956003197979875 -0.4466040772299884 4.402254498889608 
144 48 1 6.851831343797987 -1.410024471544052 4.402254498889608 
145 49 1 2.962783680606949 -9.205061479156155 1.2173450569272255 
146 49 1 3.519014704606949 -8.241641084842092 1.2173450569272255 
147 49 1 4.075245728606949 -9.205061479156155 1.2173450569272255 
148 50 1 -7.632035508364058 -0.32701866178380556 -8.934071826970404 
149 50 1 -7.075804484364058 0.636401732530258 -8.934071826970404 
150 50 1 -6.519573460364058 -0.32701866178380556 -8.934071826970404 
151 51 1 -3.236132599077411 -4.431282597087224 4.689493930146556 
152 51 1 -2.6799015750774107 -3.4678622027731603 4.689493930146556 
153 51 1 -2.1236705510774105 -4.431282597087224 4.689493930146556 
154 52 1 -9.330053940719697 -3.9803434428375795 1.9130969894852825 
155 52 1 -8.773822916719697 -3.016923048523516 1.9130969894852825 
156 52 1 -8.217591892719696 -3.9803434428375795 1.9130969894852825 
157 53 1 1.5659830267983428 -8.886812196205753 -4.267924896206704 
158 53 1 2.122214050798343 -7.92339180189169 -4.267924896206704 
159 53 1 2.678445074798343 -8.886812196205753 -4.267924896206704 
160 54 1 -6.4340163250473 -7.134392242063205 -5.673733502859368 
161 54 1 -5.8777853010473 -6.170971847749142 -5.673733502859368 
162 54 1 -5.3215542770473006 -7.134392242063205 -5.673733502859368 
163 55 1 -4.967644976916261 7.281332781667366 7.374311578081638 
164 55 1 -4.411413952916261 8.24475317598143 7.374311578081638 
165 55 1 -3.855182928916261 7.281332781667366 7.374311578081638 
166 56 1 6.479986693750358 -1.4232750160478338 -3.5405720551838886 
167 56 1 7.0362177177503575 -0.45985462173377023 -3.5405720551838886 
168 56 1 7.592448741750357 -1.4232750160478338 -3.5405720551838886 
169 57 1 2.075917800588283 7.860560628224064 -8.337118952123799 
170 57 1 2.632148824588283 8.823981022538128 -8.337118952123799 
171 57 1 3.188379848588283 7.860560628224064 -8.337118952123799 
172 58 1 3.039744647659749 6.400853629330054 3.2957049263014273 
173 58 1 3.5959756716597493 7.364274023644118 3.2957049263014273 
174 58 1 4.152206695659749 6.400853629330054 3.2957049263014273 
175 59 1 0.32116981899477415 -0.6014826712405574 -3.991460677567596 
176 59 1 0.8774008429947742 0.36193772307350613 -3.991460677567596 
177 59 1 1.4336318669947743 -0.6014826712405574 -3.991460677567596 
178 60 1 4.485512972826315 5.48440136005831 -5.2408816013255715 
179 60 1 5.041743996826314 6.447821754372374 -5.2408816013255715 
180 60 1 5.597975020826314 5.48440136005831 -5.2408816013255715 
181 61 1 5.3824075689786275 3.0275542860668114 0.42964956695125345 
182 61 1 5.938638592978627 3.9909746803808748 0.42964956695125345 
183 61 1 6.494869616978627 3.0275542860668114 0.42964956695125345 
184 62 1 -1.0420529000901637 0.943419327218251 6.412213680185701 
185 62 1 -0.4858218760901636 1.9068397215323145 6.412213680185701 
186 62 1 0.07040914790983643 0.943419327218251 6.412213680185701 
187 63 1 -9.009123340162258 0.4879591349708734 -1.0748266892870575 
188 63 1 -8.452892316162258 1.451379529284937 -1.0748266892870575 
189 63 1 -7.896661292162258 0.4879591349708734 -1.0748266892870575 
190 64 1 0.6795521823118739 -0.7205295787007915 -2.2896345891550443 
191 64 1 1.2357832063118739 0.24289081561327208 -2.2896345891550443 
192 64 1 1.792014230311874 -0.7205295787007915 -2.2896345891550443 
193 65 1 3.2169104178320667 6.838585155209078 -0.65261179666226 
194 65 1 3.773141441832067 7.802005549523141 -0.65261179666226 
195 65 1 4.3293724658320665 6.838585155209078 -0.65261179666226 
196 66 1 -1.5168583779999145 -2.728554277153914 -2.9532542221582556 
197 66 1 -0.9606273539999144 -1.7651338828398506 -2.9532542221582556 
198 66 1 -0.4043963299999144 -2.728554277153914 -2.9532542221582556 
199 67 1 -5.198779475385551 4.939492485477674 6.948637438737325 
200 67 1 -4.642548451385552 5.902912879791737 6.948637438737325 
201 67 1 -4.086317427385552 4.939492485477674 6.948637438737325 
202 68 1 6.368264651496559 3.5518077395031966 0.2665404097767876 
203 68 1 6.9244956754965585 4.51522813381726 0.2665404097767876 
204 68 1 7.480726699496558 3.5518077395031966 0.2665404097767876 
205 69 1 3.549009004375503 -8.160270478199894 -3.4473003296461266 
206 69 1 4.105240028375503 -7.19685008388583 -3.4473003296461266 
207 69 1 4.661471052375503 -8.160270478199894 -3.4473003296461266 
208 70 1 -3.845227899593009 3.663086188943428 -7.211748476720842 
209 70 1 -3.288996875593009 4.626506583257491 -7.211748476720842 
210 70 1 -2.7327658515930087 3.663086188943428 -7.211748476720842 
211 71 1 -1.2427670026788848 7.5522657239061814 0.1930875860050154 
212 71 1 -0.6865359786788847 8.515686118220245 0.1930875860050154 
213 71 1 -0.1303049546788847 7.5522657239061814 0.1930875860050154 
214 72 1 -7.400514012747793 6.041176883083086 4.752717022227527 
215 72 1 -6.844282988747794 7.004597277397149 4.752717022227527 
216 72 1 -6.288051964747794 6.041176883083086 4.752717022227527 
217 73 1 -1.2978600675859417 2.4512018922753462 -5.85294753817633 
218 73 1 -0.7416290435859416 3.4146222865894096 -5.85294753817633 
219 73 1 -0.1853980195859416 2.4512018922753462 -5.85294753817633 
220 74 1 -5.485076757373727 6.002789205515834 0.7035455608443293 
221 74 1 -4.928845733373727 6.966209599829897 0.7035455608443293 
222 74 1 -4.372614709373727 6.002789205515834 0.7035455608443293 
223 75 1 -2.3236293666968835 1.844537545283689 -1.0513654058263775 
224 75 1 -1.7673983426968833 2.8079579395977525 -1.0513654058263775 
225 75 1 -1.2111673186968832 1.844537545283689 -1.0513654058263775 
226 76 1 5.85919614970966 0.14284437368738145 2.118979444960477 
227 76 1 6.415427173709659 1.106264768001445 2.118979444960477 
228 76 1 6.971658197709659 0.14284437368738145 2.118979444960477 
229 77 1 -7.611742437746527 -7.774674349123519 -1.381703401784046 
230 77 1 -7.055511413746527 -6.811253954809455 -1.381703401784046 
231 77 1 -6.499280389746527 -7.774674349123519 -1.381703401784046 
232 78 1 7.069654947623543 0.3850765492572774 -5.491252384119512 
233 78 1 7.625885971623543 1.348496943571341 -5.491252384119512 
234 78 1 8.182116995623543 0.3850765492572774 -5.491252384119512 
235 79 1 1.7437070696083485 -4.395548780641848 5.61839334962662 
236 79 1 2.2999380936083487 -3.4321283863277845 5.61839334962662 
237 79 1 2.856169117608349 -4.395548780641848 5.61839334962662 
238 80 1 -1.261860081902698 0.3216916044788112 -8.833337365079332 
239 80 1 -0.7056290579026978 1.2851119987928747 -8.833337365079332 
240 80 1 -0.1493980339026978 0.3216916044788112 -8.833337365079332 
241 81 1 7.359057721700849 3.1134013179893625 -7.7700863177556645 
242 81 1 7.915288745700849 4.076821712303426 -7.7700863177556645 
243 81 1 8.47151976970085 3.1134013179893625 -7.7700863177556645 
244 82 1 8.037516200186682 5.13789219632203 -6.950915452261436 
245 82 1 8.593747224186682 6.101312590636093 -6.950915452261436 
246 82 1 9.149978248186683 5.13789219632203 -6.950915452261436 
247 83 1 -7.556548808180217 -7.172100238376434 4.996585346897081 
248 83 1 -7.0003177841802176 -6.20867984406237 4.996585346897081 
249 83 1 -6.444086760180218 -7.172100238376434 4.996585346897081 
250 84 1 -0.3746201067632947 2.041258039735503 7.514808711610968 
251 84 1 0.1816109172367053 3.0046784340495662 7.514808711610968 
252 84 1 0.7378419412367053 2.041258039735503 7.514808711610968 
253 85 1 -3.1719047956327002 -9.957351078264894 4.277003756866586 
254 85 1 -2.6156737716327 -8.99393068395083 4.277003756866586 
255 85 1 -2.0594427476327 -9.957351078264894 4.277003756866586 
256 86 1 -1.7070053409470964 -7.664448944130315 4.210675186382733 
257 86 1 -1.1507743169470963 -6.701028549816252 4.210675186382733 
258 86 1 -0.5945432929470963 -7.664448944130315 4.210675186382733 
259 87 1 -2.4585818039330127 -8.681871971036204 -7.044501445453382 
260 87 1 -1.9023507799330126 -7.71845157672214 -7.044501445453382 
261 87 1 -1.3461197559330125 -8.681871971036204 -7.044501445453382 
262 88 1 7.307410808796582 -6.723772120794811 -5.411900590122712 
263 88 1 7.863641832796581 -5.760351726480748 -5.411900590122712 
264 88 1 8.419872856796582 -6.723772120794811 -5.411900590122712 
265 89 1 6.668740862942097 -0.6828698293920132 6.011578018577477 
266 89 1 7.224971886942097 0.2805505649220503 6.011578018577477 
267 89 1 7.781202910942096 -0.6828698293920132 6.011578018577477 
268 90 1 4.909364937614876 -9.420794770943468 3.811782671073864 
269 90 1 5.465595961614875 -8.457374376629405 3.811782671073864 
270 90 1 6.021826985614875 -9.420794770943468 3.811782671073864 
271 91 1 6.927123287152205 -1.2601766576840225 -2.3848770928084893 
272 91 1 7.483354311152205 -0.296756263369959 -2.3848770928084893 
273 91 1 8.039585335152205 -1.2601766576840225 -2.3848770928084893 
274 92 1 4.475007725921603 -0.878673173735381 3.560814525174248 
275 92 1 5.031238749921602 0.08474722057868256 3.560814525174248 
276 92 1 5.587469773921602 -0.878673173735381 3.560814525174248 
277 93 1 -2.05946285845558 -3.1545409051931426 0.41848102948810606 
278 93 1 -1.5032318344555797 -2.191120510879079 0.41848102948810606 
279 93 1 -0.9470008104555797 -3.1545409051931426 0.41848102948810606 
280 94 1 8.439062420555166 1.9679617129276463 2.633286918931704 
281 94 1 8.995293444555166 2.93138210724171 2.633286918931704 
282 94 1 9.551524468555167 1.9679617129276463 2.633286918931704 
283 95 1 -8.049226986242154 -4.060448585524522 1.4663535648790678 
284 95 1 -7.492995962242153 -3.097028191210459 1.4663535648790678 
285 95 1 -6.9367649382421535 -4.060448585524522 1.4663535648790678 
286 96 1 0.14858535376989812 -8.953984027577706 7.068381060471271 
287 96 1 0.7048163777698981 -7.990563633263641 7.068381060471271 
288 96 1 1.2610474017698983 -8.953984027577706 7.068381060471271 
289 97 1 -4.903076357202621 8.0036966678094 -1.0378683019169168 
290 97 1 -4.346845333202621 8.967117062123464 -1.0378683019169168 
291 97 1 -3.790614309202621 8.0036966678094 -1.0378683019169168 
292 98 1 0.7515381087749399 0.7339202145602834 7.132855556540715 
293 98 1 1.30776913277494 1.697340608874347 7.132855556540715 
294 98 1 1.86400015677494 0.7339202145602834 7.132855556540715 
295 99 1 8.257580123705294 -8.052401811337935 5.280654969006818 
296 99 1 8.813811147705295 -7.088981417023871 5.280654969006818 
297 99 1 9.370042171705295 -8.052401811337935 5.280654969006818 
298 100 1 1.0933145404717401 2.986452228740365 2.6567847617874634 
299 100 1 1.6495455644717403 3.9498726230544285 2.6567847617874634 
300 100 1 2.2057765884717404 2.986452228740365 2.6567847617874634 
301 101 1 -6.583240519588607 0.49254271192716614 8.001435322482859 
302 101 1 -6.027009495588607 1.4559631062412297 8.001435322482859 
303 101 1 -5.470778471588607 0.49254271192716614 8.001435322482859 
304 102 1 5.568034165476456 -4.115695235868097 -0.5361990746431697 
305 102 1 6.124265189476455 -3.152274841554034 -0.5361990746431697 
306 102 1 6.680496213476455 -4.115695235868097 -0.5361990746431697 
307 103 1 -9.319011101721712 -7.175287736224581 1.8721850960442907 
308 103 1 -8.762780077721711 -6.2118673419105175 1.8721850960442907 
309 103 1 -8.20654905372171 -7.175287736224581 1.8721850960442907 
310 104 1 -4.48040653788906 -3.5829871495141257 -0.29384568226752705 
311 104 1 -3.92417551388906 -2.6195667552000623 -0.29384568226752705 
312 104 1 -3.36794448988906 -3.5829871495141257 -0.29384568226752705 
313 105 1 -3.605052393061364 -7.340844726676629 5.1607311701565255 
314 105 1 -3.048821369061364 -6.3774243323625655 5.1607311701565255 
315 105 1 -2.492590345061364 -7.340844726676629 5.1607311701565255 
316 106 1 5.795629171798242 3.727624374441419 -1.2516556703240926 
317 106 1 6.351860195798242 4.691044768755482 -1.2516556703240926 
318 106 1 6.908091219798242 3.727624374441419 -1.2516556703240926 
319 107 1 5.978652755158103 -1.9478375916472166 -1.782253322034796 
320 107 1 6.534883779158102 -0.984417197333153 -1.782253322034796 
321 107 1 7.091114803158102 -1.9478375916472166 -1.782253322034796 
322 108 1 2.4595686785240347 6.448177876128998 1.4952016366736753 
323 108 1 3.015799702524035 7.411598270443061 1.4952016366736753 
324 108 1 3.572030726524035 6.448177876128998 1.4952016366736753 
325 109 1 4.803450107511703 -5.5117592804266735 4.425232676162736 
326 109 1 5.359681131511703 -4.54833888611261 4.425232676162736 
327 109 1 5.915912155511703 -5.5117592804266735 4.425232676162736 
328 110 1 -0.585824596027995 -0.004069202341535183 -5.897947768082944 
329 110 1 -0.029593572027994952 0.9593511919725284 -5.897947768082944 
330 110 1 0.5266374519720051 -0.004069202341535183 -5.897947768082944 
331 111 1 6.009255378173411 -7.029185691744148 -8.497056778971366 
332 111 1 6.565486402173411 -6.065765297430085 -8.497056778971366 
333 111 1 7.121717426173411 -7.029185691744148 -8.497056778971366 
334 112 1 -9.348475058725693 -5.283556863182069 5.767434691869665 
335 112 1 -8.792244034725693 -4.3201364688680055 5.767434691869665 
336 112 1 -8.236013010725692 -5.283556863182069 5.767434691869665 
337 113 1 -2.3943506277168836 7.495206750220834 -2.7098462987305076 
338 113 1 -1.8381196037168834 8.458627144534898 -2.7098462987305076 
339 113 1 -1.2818885797168833 7.495206750220834 -2.7098462987305076 
340 114 1 3.310345052504266 -0.15557850861368494 5.2806594830008535 
341 114 1 3.8665760765042663 0.8078418857003786 5.2806594830008535 
342 114 1 4.422807100504266 -0.15557850861368494 5.2806594830008535 
343 115 1 -4.764661619760703 3.985850314956714 2.6704695575813737 
344 115 1 -4.208430595760703 4.9492707092707775 2.6704695575813737 
345 115 1 -3.6521995717607028 3.985850314956714 2.6704695575813737 
346 116 1 -4.907820121279914 2.4451403459004677 1.4567806113389388 
347 116 1 -4.3515890972799145 3.408560740214531 1.4567806113389388 
348 116 1 -3.7953580732799144 2.4451403459004677 1.4567806113389388 
349 117 1 0.7597241909562792 -8.186231036318945 6.299218718629486 
350 117 1 1.3159552149562792 -7.222810642004881 6.299218718629486 
351 117 1 1.8721862389562793 -8.186231036318945 6.299218718629486 
352 118 1 8.004162883741115 7.7536425426271265 6.869009681092837 
353 118 1 8.560393907741116 8.71706293694119 6.869009681092837 
354 118 1 9.116624931741116 7.7536425426271265 6.869009681092837 
355 119 1 -8.48420628278526 3.727257402543099 0.7683318229759362 
356 119 1 -7.927975258785261 4.6906777968571625 0.7683318229759362 
357 119 1 -7.371744234785261 3.727257402543099 0.7683318229759362 
358 120 1 4.773195604006788 -5.347179050545584 -0.23257830185610118 
359 120 1 5.329426628006788 -4.383758656231521 -0.23257830185610118 
360 120 1 5.885657652006787 -5.347179050545584 -0.23257830185610118 
361 121 1 3.013132856896677 6.8489877247227895 -2.14323450639162 
362 121 1 -3.334824737421844 8.958875154856951 -4.467859782625283 
363 121 1 0.09797320387825259 1.1795054396631386 -6.246915582500673 
364 122 1 -7.423782835061589 -5.620466490945361 -0.9818739623878301 
365 122 1 3.2302558506584926 -4.035607224850351 -4.8731470772307635 
366 122 1 -2.292147621960451 -3.1555222378600707 -0.52412452191124 
367 123 1 -3.442995269246625 1.41219979090482 3.2483196068994182 
368 123 1 -7.890899724065848 4.873040256460742 -8.979429333101859 
369 123 1 4.880694898939538 -4.401955711591919 8.44884204370021 
370 124 1 -7.445949058772161 -8.916496040030152 6.371662193417842 
371 124 1 5.865031719670908 6.038248958318894 5.713910315135342 
372 124 1 5.890043763694328 -8.651214515909249 7.036769463136945 
373 125 1 1.8026952432384995 1.1095193585775878 6.273060191703523 
374 125 1 -5.307342885442664 6.833978934398015 6.57217315756956 
375 125 1 -2.462237566158959 5.978360357044261 -4.321349670919166 
376 126 1 5.855262940220491 -7.140888418121053 -5.849001106057356 
377 126 1 -7.70525483444856 -8.125997227963197 -5.819523693158616 
378 126 1 -7.740183688558669 -7.30600504664904 -0.18202042058837264 
379 127 1 0.7374426522821889 -8.566066958230728 -6.43250564887083 
380 127 1 -1.1345081857498105 6.451027644409702 -6.475195764448087 
381 127 1 2.764839592454175 -8.14433903050651 -4.231390640710042 
382 128 1 -2.8744331423449605 8.084533707040926 1.8060131934632118 
383 128 1 6.255123384453821 5.452757804192521 -2.4484139685205353 
384 128 1 -7.2807377621006975 -3.287684496406259 5.982535836134 
385 129 1 3.520334248535958 -3.031374042973061 -3.9482440928585865 
386 129 1 6.8578554301516395 8.420655929727825 7.344682206759856 
387 129 1 7.678737793444256 8.731489854662442 -4.507532683835819 
388 130 1 4.590161405090541 -0.8049368381576336 2.673421035978155 
389 130 1 -3.6937666285987216 -3.217939985522869 -1.0441829493240453 
390 130 1 7.299469657254484 -5.459996685810595 7.4013895634773945 
391 131 1 7.748504568969551 1.9744644663618018 -1.6178300761468298 
392 131 1 1.926280736747577 0.2616785857524775 3.9189345067352175 
393 131 1 -1.0559589065256159 -3.8440168329951625 -2.263600972746385 
394 132 1 -0.17039849564934428 -7.6466403945261705 6.943525975759304 
395 132 1 -8.438807960495886 -3.997645305469212 -0.22019994701285306 
396 132 1 2.927633020102851 1.4319501056823682 5.758822064005603 
397 133 1 0.10979647068553788 -1.1168515527919913 4.012464919160754 
398 133 1 6.218688139243264 -8.894804983672952 -8.02067567200456 
399 133 1 -8.738069034209746 2.2216889974081298 8.60773470363915 
400 134 1 -6.254608170722195 7.389335298620388 3.378238759746294 
401 134 1 -2.0099828436272658 6.869238828381874 -2.4414257073886665 
402 134 1 6.216807165442873 -4.216999426782625 1.8285681108810294 
403 135 1 -8.932969707752243 4.279370336110871 2.7536191256142963 
404 135 1 -7.51801019681959 7.209341458091476 -6.870209727332553 
405 135 1 -1.5766536474944495 -8.936044195480672 -2.846004215811897 
406 136 1 3.6384449259850715 5.63919347215081 8.732302020435483 
407 136 1 2.3393270109030624 2.947505934114428 -2.4526516343340763 
408 136 1 4.294060800403782 -2.9910550890727876 -7.608489982670957 
409 137 1 0.5321313738316427 5.566543792441102 3.74466506337572 
410 137 1 -4.614717891895493 0.29066811237931667 4.794297760818855 
411 137 1 5.778366635637514 0.10842138176281146 -1.1349676832320057 
412 138 1 6.9506286513324085 2.258327282459529 -7.389223366198715 
413 138 1 0.44013445941602924 -6.116697569484892 -1.4802087024376132 
414 138 1 -3.918943780482394 2.935362280694374 -8.888275418100271 
415 139 1 6.718295480420892 -4.665061778053676 2.342812190989523 
416 139 1 5.929465269696161 1.2690111617132853 7.691535980602104 
417 139 1 -6.362019743368553 -1.9153813711525158 0.015591272387419863 
418 140 1 -1.3311520355621766 -0.4116708183632234 -2.0231957066481794 
419 140 1 3.825684191091362 -3.2927569929517464 -7.194029632825704 
420 140 1 -8.722207049703682 8.099532174653262 2.0503986921787405 
421 141 1 8.52603752076002 1.170725763175028 8.905261547265464 
422 141 1 -2.655081359933967 4.491903897826843 4.134506086916515 
423 141 1 0.07134388239064116 -1.0728505428573172 -7.929805512209664 
424 142 1 0.11851091547762138 -8.525611118054627 6.081198305475102 
425 142 1 -3.297998239762336 8.911369950180685 -2.40823580961292 
426 142 1 3.510175040656529 8.285205779033369 1.455557715408613 
427 143 1 -1.3908532270994725 4.639719621567863 5.709430520105485 
428 143 1 6.950127098591604 1.8060981333514832 -5.425008552538272 
429 143 1 -7.771141259077705 0.19123032095081527 -3.2734895276154248 
430 144 1 4.8866346168249475 1.4403842051135385 -4.874579572418833 
431 144 1 -0.6404540456363694 0.8270176367347961 2.6173454745465534 
432 144 1 5.978891626795798 -0.5771119669821676 -0.930780701743231 
433 145 1 3.7205188471223902 -8.502270253174636 -7.162539710684351 
434 145 1 -4.440970467603111 0.1416253154712077 -4.522857664352799 
435 145 1 3.2079774417683886 -7.8133939347819705 -7.266046073613819 
436 146 1 7.726388952907261 7.63697270969158 8.15855562349942 
437 146 1 -0.9720466221740018 -8.039787658654124 7.339088865849288 
438 146 1 -4.876385952386781 8.008519617865868 2.402909808176245 
439 147 1 -5.922411227874504 -4.441356153334025 -5.468314344729327 
440 147 1 5.777326064644436 4.882959994813664 -4.421259453970037 
441 147 1 -4.842164430263681 -8.501630205562051 -5.785798038307178 
442 148 1 7.740262232238212 -2.1340923960537994 -7.341119919897821 
443 148 1 -8.599011314185475 -7.129057793135828 2.0526663585575413 
444 148 1 5.3490166975052365 -0.5022076309740946 -2.7134694220919773 
445 149 1 -7.040691663221149 -4.9921445617455475 6.090153459044043 
446 149 1 6.700972567240578 1.256817172559952 -8.231247517328425 
447 149 1 5.525217037261946 7.940165377157879 2.602864035838568 
448 150 1 0.4152138790106896 4.683284827751484 -2.2490891159645656 
449 150 1 0.2502853124911475 3.24304977553067 -1.3693304902584176 
450 150 1 4.564213591403458 -1.224532265965907 2.57497446756539 
451 151 1 8.479408174802565 -4.213309114711782 -8.38374556147285 
452 151 1 -1.650930360467468 -3.2176639756934264 -7.097465330615886 
453 151 1 4.406967261013001 0.7454710266449887 6.790981528493438 
454 152 1 6.46088265420274 -1.0455062318181039 2.1166225139017083 
455 152 1 -7.634043231268652 -1.6973650592122453 -1.4526371063859482 
456 152 1 0.39270781575761227 -6.95309162634748 -0.9400178977187554 
457 153 1 3.931344560535287 -8.11152448466322 3.7895436389889614 
458 153 1 -3.320800238731511 -2.2980015752795495 6.840272290758367 
459 153 1 7.288359100876363 -5.352495345495849 7.368485555641755 
460 154 1 0.8801328105134161 -6.6878121529709595 -2.0884998647540787 
461 154 1 -4.838820220691325 0.21677166178153762 -8.849777049604 
462 154 1 4.410167752170057 -5.80673005582527 -2.8158548837050787 
463 155 1 1.473876565945785 7.7687359557638445 6.637502995318096 
464 155 1 8.950870001450493 5.773044848345545 -3.7670765659801297 
465 155 1 4.614525749262425 8.500370069848241 8.128420118152228 
466 156 1 -2.0650279849183635 -4.977771011536619 -0.45560293945991504 
467 156 1 2.311666913285345 3.514593709646535 7.912888299216458 
468 156 1 4.8331128228220805 0.5356764270519001 -3.4732613877497274 
469 157 1 7.555121247098082 -8.451002070347698 8.598791942266292 
470 157 1 1.6653943719213267 3.2658098074485835 -2.561445847086067 
471 157 1 0.23345161293405248 -2.102815397915955 -6.068061652002782 
472 158 1 -8.460760357650955 2.035899287554505 -3.471522083900683 
473 158 1 -8.113475073822517 -1.8429934629950582 6.496170143412439 
474 158 1 8.117154528987644 -7.994177995073665 4.792904098703572 
475 159 1 2.44280973367146 7.534214724909717 4.4473613315333616 
476 159 1 -3.7879271751638868 4.555995249540526 5.629253351701207 
477 159 1 2.413424909653129 -2.0283892358667988 -4.122377906534042 
478 160 1 0.4665822111552824 -4.851651309769227 -0.8043923385360863 
479 160 1 -4.4248944961920245 -0.8419956710441205 3.561943594251824 
480 160 1 0.905367576483707 1.6432902677073713 5.012737751925615 
481 161 1 3.0612516393792006 -1.7784849125285342 -4.3205188355891355 
482 161 1 8.401545162646872 6.300497864844468 0.5552162227409188 
483 161 1 1.88400729089952 -6.663474349616971 1.029114872909103 
484 162 1 8.25710072003513 -8.164757050202596 -6.560711016481616 
485 162 1 3.2921913242519594 6.528768841977458 -8.01350411908755 
486 162 1 -8.632046369003392 -5.863251509191592 0.07717830996414143 
487 163 1 5.873193899234426 -1.2978839546702368 7.594538938780509 
488 163 1 -5.906246521972584 -5.13476758348254 -0.21540172013998315 
489 163 1 -0.021432497973801645 -5.061258928914715 -0.5421267081360295 
490 164 1 4.2751063276598416 5.6553055754643164 1.0511182808678576 
491 164 1 -1.0552597430020478 0.7894226657372343 -8.860371028418246 
492 164 1 -2.0108434076604356 -6.683638407226498 7.092281607247575 
493 165 1 -3.248796887304903 0.5883302694591421 -5.4935525406437815 
494 165 1 -7.193005688485707 1.7903837034334806 -3.997978759667528 
495 165 1 5.350617364672376 7.337400990755157 7.523791610461053 
496 166 1 5.643582005287353 -8.874583275551293 1.956631478176993 
497 166 1 1.7085230456621296 -4.90758798752692 -8.403889372194854 
498 166 1 1.885492392065606 -7.687424868987817 -4.112485505457191 
499 167 1 -5.446402338314758 4.552676605074451 8.914349437861421 
500 167 1 -6.906768055178928 -0.748549385202649 4.088894946762114 
501 167 1 3.816707457345011 8.694964650592482 4.992514379208981 
502 168 1 -3.3269049988110178 -2.7614337600885515 -1.2279302054268584 
503 168 1 1.486438378754663 4.592137879080596 1.6188254676853795 
504 168 1 -2.792903272947653 6.6397289435169995 -4.500500329260582 
505 169 1 2.5674861922754317 1.3673307001458 8.850557665466674 
506 169 1 0.7827627870168641 -5.308954403373484 -3.604267331951971 
507 169 1 -0.03516839811416084 1.3634003375849613 -0.5424926919410069 
508 170 1 4.2597328880869085 -6.698725427155717 -1.2544793743681026 
509 170 1 -6.279445015423345 -4.173166192548365 1.2746988847388607 
510 170 1 -8.148651120553119 -6.449716890964281 4.982249196087938 
511 171 1 0.05443620855796816 -2.9343335399690327 -5.438373385316981 
512 171 1 4.7954370504132715 -1.618354426116488 1.8346934281762817 
513 171 1 -0.6596161261898548 1.620191686674822 -0.5312165939715925 
514 172 1 -0.10317917730286652 0.5020294243292458 -0.9443576102799582 
515 172 1 8.367341665000204 -5.649801249710865 -7.634389984696606 
516 172 1 -5.047327919915686 -3.6180207056313547 -7.158317014896484 
517 173 1 7.362095274006371 -7.3974084293579985 -0.03954574776200559 
518 173 1 7.95655619583707 -5.53310584102222 7.8585183849732445 
519 173 1 -0.28416090467310795 -5.843380593445644 1.2151006143086764 
520 174 1 -1.999520688627669 -3.5300144328914804 -6.645230483100896 
521 174 1 -5.36917340782324 7.40930946136649 2.8947135603996568 
522 174 1 -8.062822620116762 -2.3447436366736634 3.449568527762029 
523 175 1 1.1266100161753592 1.4132437370548523 -8.202698574785165 
524 175 1 -0.7455746090544064 8.452999148647486 -4.382813390983779 
525 175 1 4.740506404753521 -1.7821031874796622 -8.773567276721142 
526 176 1 -0.6772028871518572 -0.6196240651177742 6.120248469030393 
527 176 1 2.0222947644058404 -5.1487065564313355 7.454211745349134 
528 176 1 -1.3123995593088251 0.8760966212091805 6.647840374613802 
529 177 1 -4.723526445815743 2.7753347654667593 0.853469733650206 
530 177 1 -0.573606286523292 -4.757197691329537 4.989421723392107 
531 177 1 -4.463157204164293 3.241536511686773 -8.684284676196388 
532 178 1 6.331212917904082 -8.163133203949197 8.839946823795191 
533 178 1 8.438488087882309 1.943049078802817 3.9606335128683554 
534 178 1 -7.473247541190574 -8.543534320570444 -7.869203645274836 
535 179 1 4.582490894621085 8.743899529979398 6.611390500889867 
536 179 1 7.664029741099952 -7.268921476766719 -0.49411869927964425 
537 179 1 -1.5369230992275735 6.70634987853072 -3.6266199030129895 
538 180 1 -0.6066913950340318 -8.594800874566822 -0.13909558082562512 
539 180 1 -5.160310652959661 1.5028745702443658 -0.48134175721936145 
540 180 1 2.0552878384233573 5.005662480992488 6.378379642834281 
541 181 1 -4.57645740146077 7.970920424838656 -4.670009812663491 
542 181 1 0.7447921553943768 1.4754082828231034 7.103442245089688 
543 181 1 4.440677900498873 3.5021771554064873 -7.803666348231047 
544 182 1 3.6591769399788383 -4.067886391659137 -4.1067682088451996 
545 182 1 -7.10498142584936 -8.590352363596223 7.5526079336349525 
546 182 1 5.573784987349736 5.411806593350242 5.5945453627288675 
547 183 1 0.08361539669550311 1.0571562128898524 0.702638155443486 
548 183 1 -5.919790142399311 -6.1490768285809585 -2.851139641642148 
549 183 1 -8.237126776353424 8.190609960116756 6.78668159315292 
550 184 1 -4.775323460874202 7.890003828226529 -7.329830011774183 
551 184 1 0.20182476744762212 8.524319603002468 -0.0789674094206454 
552 184 1 -8.74962211274045 -6.231870738171453 -8.273422412338277 
553 185 1 -5.233027617572731 -6.2333995748522515 -6.1990851962671885 
554 185 1 -6.211768907557633 7.75138510981688 3.9191035255699997 
555 185 1 4.884873380318421 2.488817585687425 4.435507606981336 
556 186 1 3.8955794345234196 8.430695103256685 4.474060970221437 
557 186 1 8.354301857150794 -1.070886189267764 0.481093283297346 
558 186 1 -7.8190564050413505 -4.277124613166675 7.839065388274328 
559 187 1 -1.2492348006697185 -1.8521868372356192 -3.880585573701703 
560 187 1 -2.6801585811306943 7.574899535246747 -3.1378423344246285 
561 187 1 6.278796257340673 7.803598471440566 0.5048677280636991 
562 188 1 0.1535926570382884 -3.354674979657247 -1.0750302981549549 
563 188 1 -0.8033941089206564 3.356602333446334 -4.840279468592679 
564 188 1 -5.3121686996446495 -7.070817948696169 -4.812065707602884 
565 189 1 5.915728144833821 -5.407912074557946 1.209858943317574 
566 189 1 8.466978870870271 1.2594730401683787 8.675947685755297 
567 189 1 -7.201725528554208 -8.04369394046289 6.363349627161815 
568 190 1 -2.0625600861878057 -4.1088160100688835 -0.2719877894857561 
569 190 1 3.9254463491850924 6.6762719498290135 -4.862052563303855 
570 190 1 4.7890202104215405 -7.912672082472215 -8.150606197954906 
571 191 1 -4.69410231720116 2.4091473764982663 8.48779242275564 
572 191 1 -0.42756348929504995 8.85971191626054 -7.78347474017987 
573 191 1 6.458690022374562 2.109776731113085 1.094625951807494 
574 192 1 5.83135309065594 -7.682530968931775 7.0427687955659515 
575 192 1 6.461941534601815 -3.01259367383779 0.10309008247230445 
576 192 1 5.753589807419621 2.8756789923662502 -5.626163371147689 
577 193 1 -5.945951655397035 -8.88134277143961 -8.227422098704245 
578 193 1 7.966274277864223 -7.500816853922756 5.871332481669754 
579 193 1 1.178441072068658 -7.1395433770695185 1.8648163801828055 
580 194 1 -4.29838058309087 -1.6886711746166476 5.740002865146984 
581 194 1 -0.9601343411431102 -4.8806253442210314 1.152080167784522 
582 194 1 -2.1234992169260627 -0.4170867282322668 -2.5247302227193122 
583 195 1 -4.5021343143512045 -5.69432127621279 4.499144454601424 
584 195 1 7.6213363277761665 -5.392542518539789 4.124270441844688 
585 195 1 4.297658913216708 -8.04712436617476 -8.498318855265909 
586 196 1 5.889717175953926 -7.705606123407485 -5.264184191345871 
587 196 1 5.456395893719002 -3.680345937608471 1.8807823236138397 
588 196 1 4.251502198685543 -5.450625253814928 -0.47772584393970696 
589 197 1 4.978179175962236 5.333977756532647 6.613516744862897 
590 197 1 -8.591209986954242 2.181482370994514 8.822502494993817 
591 197 1 -4.584030383525764 1.549218108583963 -7.732852448397678 
592 198 1 7.384240207758122 -5.670139108234692 -4.167614113573249 
593 198 1 -6.5544963465133375 8.890501793419492 -2.188774035609195 
594 198 1 7.273375082145847 8.524827755646037 8.433331401460595 
595 199 1 -5.039596512453368 6.733147911832559 -2.816965056121309 
596 199 1 -7.576032545685172 5.287825323088217 -4.880699569290984 
597 199 1 -0.7160392950368912 -5.004509875901384 -3.2801687582268784 
598 200 1 -6.396177790195269 -0.26127103957309217 -7.35702534718507 
599 200 1 7.752259714398765 -3.434017994130828 1.0186574919024487 
600 200 1 -5.839867189386095 6.331452678276236 -0.5979289619145423 
601 201 1 0.852173062826628 1.822654891429634 5.740259695906506 
602 201 1 -3.6792906066994373 2.6177307413788533 -1.5892182716016672 
603 201 1 -3.8856004032679126 -1.3894822429834752 0.7123350952614373 
604 202 1 -2.089453091360369 8.790446449024412 -4.879133393834038 
605 202 1 -4.808526416057782 3.7029031616465318 -7.483695603095706 
606 202 1 -4.120806132818553 6.951554669533875 4.6093560911709375 
607 203 1 -3.9242917836339997 -5.554041362696011 8.317850848181763 
608 203 1 2.2534217892486144 -3.8482810147990154 -7.813239628011401 
609 203 1 -6.4754017009380735 -7.7143698273326144 2.1726794322973824 
610 204 1 -8.651127708419022 0.12266869598203023 -0.5680259912189509 
611 204 1 -8.102270665831014 -5.707091760443745 4.71499257011682 
612 204 1 -8.543878809613243 -3.074456892752332 -5.37757930443326 
613 205 1 -6.47167269131063 -2.891888897643047 6.406098871481694 
614 205 1 5.174090403063165 3.9900083871023835 -4.882187160700656 
615 205 1 6.8847769734140964 1.4318026942406163 -8.111780234074507 
616 206 1 -1.1681736983965756 -6.815361695096196 -3.688252559475318 
617 206 1 7.6121952176548255 5.311162108697829 5.05821709733484 
618 206 1 6.410944886585998 -2.657850746509796 6.478801069336187 
619 207 1 -7.856114018364963 0.9327310167535732 7.826228905413075 
620 207 1 -1.0765785167411313 -6.531283955415769 -4.898039615798433 
621 207 1 -5.818749148908901 -2.8071457748809028 6.966070383357115 
622 208 1 -8.372817997018366 8.62816925819817 6.338708599008557 
623 208 1 5.317375586993785 -1.1600419367412407 -7.744938602590475 
624 208 1 -4.143251609488558 -6.728067900481071 1.1294706871783209 
625 209 1 -5.235263186010206 -1.5480149796873741 7.456882124824386 
626 209 1 3.4737916275623864 6.260003378774446 3.748363965708913 
627 209 1 1.6715165306017674 0.9600245887941075 2.8905546470744916 
628 210 1 -6.739227479018924 -8.548608178428015 3.4824737584615804 
629 210 1 8.188194878508138 -0.36135528057002375 3.800318158948844 
630 210 1 -3.1149942706552585 -6.695926427325645 4.3632018566512425 
631 211 1 8.199986841650787 6.6412843976139495 6.996649501532788 
632 211 1 -8.814051696524782 -3.235740571259562 5.77375577146638 
633 211 1 1.5805785922514257 -0.3150741053993382 -2.2423321652115797 
634 212 1 -7.881423345001208 0.4963911831574528 7.806758012245311 
635 212 1 -4.590696723184683 -7.6828829935762695 1.947121115966148 
636 212 1 -6.536312076178192 2.9682444865551467 2.713943399044142 
637 213 1 6.103125862376659 -2.143446801261489 -6.662042494177214 
638 213 1 2.5946738845233526 -3.789203135431162 -7.991537174352598 
639 213 1 1.9840014447137513 -3.8177867391280005 0.5234399212477641 
640 214 1 -0.34693483816149495 -5.960419070242328 1.3337162120460402 
641 214 1 5.256551990887953 2.2648526873453054 4.140329905853392 
642 214 1 -0.6382887942384219 2.796048435997804 7.004140003784926 
643 215 1 -0.05676872481318007 3.094687751975206 -4.5156925027504515 
644 215 1 -2.1070084836664336 4.976693487939711 -0.283711876448109 
645 215 1 5.979526927928175 -1.183596297687604 5.216434235417928 
646 216 1 -6.399658484207442 8.553833115458168 -1.167479054567174 
647 216 1 -7.210223938100196 6.967875157190729 0.812183951266114 
648 216 1 -6.6035782637889415 -7.477638092746849 2.547743360805562 
649 217 1 -5.538829797083066 -3.9570770592391096 4.345046171938645 
650 217 1 -7.243197493376181 -4.436446111305499 0.0747402434400346 
651 217 1 8.165082929895672 -4.301667537911886 4.238649820554047 
652 218 1 -5.635488656559394 -8.280015577482951 -3.6380928821871477 
653 218 1 7.538190432013526 -0.009820069122380204 -4.305894979541557 
654 218 1 6.054595174632123 6.458576097085338 -4.489214801854949 
655 219 1 3.203282494127075 -8.734519666298272 -7.841715549478696 
656 219 1 1.2377050701145453 7.29983572467717 -5.058415835837328 
657 219 1 7.761488798563139 -0.0688713453959302 3.0997969605011946 
658 220 1 5.928621383504543 3.855199495545371 3.1911524969272076 
659 220 1 -3.8542872899460194 7.2356125793141395 5.392977249048487 
660 220 1 -4.509985996730603 5.1352829601105885 7.889979076111818 
661 221 1 -7.142184146367812 -7.849160628554483 -6.729552845750927 
662 221 1 -7.323081400970455 0.17997175129027632 -3.7719433808037897 
663 221 1 8.9107770207012 2.530611746323993 -3.4738135937990124 
664 222 1 -2.335044322988483 1.9513296334880046 5.834314866177518 
665 222 1 -1.6634860197584942 5.838845109187039 7.534464010564427 
666 222 1 -5.27419563274748 -8.958637347699542 -0.09749038842356406 
667 223 1 8.561674188715681 4.848572790940182 2.3892890422452844 
668 223 1 5.513999728274806 -7.320342726924869 -5.3639728509889215 
669 223 1 -1.3303271451662706 -6.816254253231863 8.368872367191088 
670 224 1 4.629952965764051 6.8007788177168145 -4.616138230181877 
671 224 1 -4.503143514116043 6.804619174149922 0.5427042375307369 
672 224 1 -7.380730888272847 -7.608877338396727 -6.49648110627127 
673 225 1 8.933779564282343 0.7081515242428544 6.843608618959756 
674 225 1 4.393370015520333 5.473944752558618 -1.6205909567757963 
675 225 1 -5.9600669004903 -0.8972746091828263 5.403667910920417 
676 226 1 -4.3068016261967506 0.9354555104872002 0.3602012651152382 
677 226 1 4.673442086896831 6.994772596293149 -3.64650749086322 
678 226 1 -1.3122790949076268 -1.5282357412288086 -0.623173893630721 
679 227 1 -5.902217780901289 3.2489804141494467 -3.9220170571502466 
680 227 1 -3.6287985240369984 2.393730192113395 0.028767620355868218 
681 227 1 1.5699944400546286 6.758097482430447 -5.558895766598813 
682 228 1 -3.4057744111255044 -7.138346281650312 8.129625176626998 
683 228 1 -2.922267828119966 -7.267898951652397 8.112719705406175 
684 228 1 -2.360551682997267 -1.897595691011512 -7.230570041778534 
685 229 1 0.9422991120037345 -1.4479550926591278 6.1987529189240735 
686 229 1 -6.203211610996593 -3.8049976007999664 3.3684464754744337 
687 229 1 -8.33007562673713 6.50813968528645 7.5612339145184855 
688 230 1 -6.668703953149521 2.4016202006845777 5.688407531253155 
689 230 1 3.623541495315319 8.601322375778281 -4.516166096546138 
690 230 1 -7.156186677128043 1.4439704214004934 6.102894668012146 
691 231 1 -0.1762629816398693 4.543503834529647 -5.785377132837934 
692 231 1 4.828193381089898 -6.503153474150387 4.993592398239892 
693 231 1 4.142851122339714 4.422492735264013 8.68517075690485 
694 232 1 -3.522449113666652 -8.89690938556307 -8.46078910866792 
695 232 1 -2.4269763469166605 -4.837712067016462 -4.086545897019178 
696 232 1 -7.129600391766092 3.91787908531961 1.7268729347731462 
697 233 1 3.3810281216954827 4.81104081307846 0.9109817528737576 
698 233 1 0.8348703119673679 1.085196398667268 -8.231305580404786 
699 233 1 -2.9184809139904786 3.1481031691850347 0.9733823231969048 
700 234 1 -0.5639658813599588 4.08425839570638 -0.29183147986404734 
701 234 1 -0.22094053646753764 3.2746980510298496 1.617584342541921 
702 234 1 -3.872705865049941 5.518806887034488 -0.0709637360845683 
703 235 1 -6.476692378081712 4.866225047007369 -1.4623910216087612 
704 235 1 -1.827224182189335 6.473663818247223 -3.984171745172884 
705 235 1 6.790968154461421 7.565344034063763 -7.366384453890285 
706 236 1 4.481784275228314 1.9730983726252447 -7.902595315823051 
707 236 1 7.442967153050926 -4.134935978538876 0.807217022693413 
708 236 1 3.6224717015328434 -3.499027364040442 -6.722453930272243 
709 237 1 4.757883769064419 0.382542258015798 1.6678288816147528 
710 237 1 6.263557767808015 -8.803972920280184 -3.8531923016353975 
711 237 1 -8.4941610674172 -6.76124439199433 -5.829255838924567 
712 238 1 6.359275156615761 -5.811615998562134 -0.26172309767234836 
713 238 1 7.593701206363836 -2.4327034873957416 7.237053339916827 
714 238 1 -3.3817163483974477 -5.281841079824334 3.221097061482819 
715 239 1 2.9420123812178467 4.881680904571628 -4.847488797456667 
716 239 1 -5.958809956434576 6.678339861276553 -8.497729018501575 
717 239 1 -5.729774460290296 -2.021548573299323 4.19171253228096 
718 240 1 -5.779976170271064 2.8565483239823806 -2.08944687471363 
719 240 1 -4.195518822141057 -4.225747001290193 -1.939022687740633 
720 240 1 -3.8906557028910225 5.053794322355145 -5.479166105300811 
721 241 1 -2.4489565775052604 -3.0238836087635335 5.84757878063796 
722 241 1 6.8354687998218715 1.0709784786084295 -3.775085925277631 
723 241 1 -3.9219491507998274 -8.520943445365393 -4.180406406892441 
724 242 1 -4.27110858688531 -0.40039102926326464 -0.6469392072596705 
725 242 1 7.788864697589325 -2.711312623660346 5.1790342492195975 
726 242 1 7.708338040052837 7.984447144267662 -5.559004977847374 
727 243 1 -4.763769001711064 -5.450025568933105 -2.7153419726691475 
728 243 1 7.120301555275567 -5.235032240078284 -8.772500759584155 
729 243 1 -0.05880787726879433 -6.407388439127002 -8.85141027528553 
730 244 1 -7.68135199564256 4.201714353212299 -3.2545510525013643 
731 244 1 -6.192984774169248 8.129024619727478 -5.526893910042729 
732 244 1 -4.4813075238901146 -8.252121929995626 -3.733942756769644 
733 245 1 -3.3450305864292167 0.7371996240244183 -3.269229200849045 
734 245 1 2.7024460366939813 -2.9726940653679765 -8.509175209129776 
735 245 1 0.5923868132664971 -0.5355405357386971 2.4328981104467946 
736 246 1 -3.0185668249174924 -0.7864388776180604 -0.34419708313291686 
737 246 1 -5.7321499677869125 6.5263805824192485 -2.707156211470597 
738 246 1 4.334626576826819 2.8259686160181854 4.97591092947509 
739 247 1 7.219445999487043 1.213322720169474 -1.9545875078918593 
740 247 1 4.658048188796586 -8.30753093930802 1.1325408990118966 
741 247 1 2.4889744991952174 -6.179391065019265 7.2306480629607925 
742 248 1 -3.0608618060645547 -7.972337936081201 6.959654253221975 
743 248 1 4.843920546534946 2.7567371009490493 4.44382265946717 
744 248 1 -1.6211598657129676 -2.3069931718753978 6.295103627944693 
745 249 1 -5.435330799200182 4.269095217054323 -4.040421975942289 
746 249 1 -4.3687527105158175 5.929978682617541 5.72924631576897 
747 249 1 -4.76604168751014 -7.92134548304998 -0.6640961393111802 
748 250 1 1.8942714385374657 -6.063228943353589 3.126185417625573 
749 250 1 -0.4365917324924844 -8.849444412025157 -2.1241803938734414 
750 250 1 8.134261839800889 7.899451873864351 -7.106544951424125 
751 251 1 -2.2218160709900916 2.321225723550862 7.475888985272512 
752 251 1 3.6792190674383782 5.320621437503634 5.841394320467019 
753 251 1 2.8012923477309375 2.3057014927342685 -2.5620092114589657 
754 252 1 -1.6831855830410953 1.4602719209067594 -6.407652440198511 
755 252 1 -7.876469088340132 -0.8047924870786538 -6.7300063460501045 
756 252 1 -2.3016051524318115 5.482438007294903 6.9950128176495685 
757 253 1 8.990023658062864 0.7797476066426885 -2.549493237281009 
758 253 1 -6.233379800216751 5.862069312261964 1.5106354441317862 
759 253 1 -4.959099388650495 -0.20204207908986938 4.24626318453412 
760 254 1 -5.6650247240207126 3.8014598549750183 3.344460019601062 
761 254 1 8.899925591677164 8.638237693046644 3.716005925803909 
762 254 1 1.4683722970000623 7.005893224068547 -0.36769178356397525 
763 255 1 2.166743432137146 -1.2786907008798156 -8.302110450792892 
764 255 1 -5.610654857024662 3.8107963739374675 3.0685285590978744 
765 255 1 3.9563643563324984 0.42666509151164966 6.555209505197194 
766 256 1 2.3486056147223753 -5.136914528637333 -0.06062553984542518 
767 256 1 -1.4366625793527268 -1.8173287424346674 3.412511609957061 
768 256 1 -6.933430316570832 -4.922842304965415 -8.675135778631425 
769 257 1 3.463456465326445 5.521224802554324 5.8873091831193545 
770 257 1 -6.2232575092211215 -2.814060368531951 1.3328220035416933 
771 257 1 -0.06709773797928698 -5.756268755006778 -2.5722989950883255 
772 258 1 -4.693137512229747 2.7626482874665914 -2.3427790274415043 
773 258 1 5.231122673081213 2.6673775267351196 3.957180077922679 
774 258 1 4.369310441866871 8.989242011714769 8.363830999270558 
775 259 1 2.283867279470245 6.83258507250433 1.9130136342697401 
776 259 1 -5.500517067662457 7.580012008724431 5.008862988286078 
777 259 1 -3.419486515930023 3.6357376881915826 5.576272330541123 
778 260 1 6.361616123322149 4.843704662983024 5.062198411985339 
779 260 1 5.863743880652953 2.547229359623115 2.802248190691655 
780 260 1 2.615354965795042 2.9288629986066184 -7.917058214744804 
781 261 1 -8.2885882881122 -1.218352938267759 -8.166653221601946 
782 261 1 -3.8468985805151004 -1.3418078309677082 5.298925629694603 
783 261 1 3.4774702408505043 3.5790384440698464 0.5487008550817052 
784 262 1 7.427049326776327 -2.181426702657957 -4.935722667672296 
785 262 1 2.227911776307133 -6.355127369469082 -3.3085833951631827 
786 262 1 4.535863750209245 -4.06912615171994 1.7160493009584599 
787 263 1 6.457028808776057 5.9592847180351445 7.584601108507428 
788 263 1 -4.945367631932428 0.6192480636032727 7.6508177923035205 
789 263 1 -8.841216323405803 5.449214710928018 -5.743536998900602 
790 264 1 -5.887232660568269 5.5211260774221405 8.418306273607708 
791 264 1 4.603481672192537 7.964815898640502 7.652416784273125 
792 264 1 7.428913056106836 -8.824507788210909 8.10651288797067 
793 265 1 4.892549158359916 -1.9502605139420197 6.223204974570441 
794 265 1 3.0338318016089367 1.9779008253687103 -5.40856743700081 
795 265 1 0.13498977036864268 -8.121841055411902 5.132591416767092 
796 266 1 7.418788955108585 -0.7088587034554585 7.606547426279974 
797 266 1 2.918814096206045 -0.5541651207368972 -3.6201946293819915 
798 266 1 -3.0987592142484353 -4.085501844613978 -4.647260638229723 
799 267 1 -5.85090173380087 -6.126419511024653 5.975732717268073 
800 267 1 4.312801935491494 1.844306944861092 3.7390045314963647 
801 267 1 -1.1842129897907734 5.087874004796376 6.387463683039552 
802 268 1 -3.558067490965472 -1.3975589068398442 7.0914181613738485 
803 268 1 -7.249359047105813 -6.986858765066305 3.7214378763802696 
804 268 1 3.5251502562943173 -6.202978193743575 -1.612418318722776 
805 269 1 2.464049647255896 -3.838928973991276 -5.2312028846933565 
806 269 1 -5.226426657361719 -2.756911525720004 0.7912763964094722 
807 269 1 -8.366356773608139 -7.625599606468 -7.045837397779257 
808 270 1 -8.35760749386489 7.279223544125365 -4.031376468000441 
809 270 1 -4.136503816772343 7.261581982981497 6.63355204137244 
810 270 1 -2.054742366443847 -7.558208189057413 -8.877974351453732 
811 271 1 6.292150699915618 -6.5772488742431054 -2.9878351672890897 
812 271 1 -6.961581167492318 -4.14316773256359 6.261766993725665 
813 271 1 6.907292427121774 -7.786633230318741 6.716363845227779 
814 272 1 6.6282485064852406 8.34189872861658 2.6318326710943936 
815 272 1 -8.526441652292528 4.52008714340014 6.3705594422322775 
816 272 1 3.977317663386362 -1.4403217301983462 -1.4106891067959229 
817 273 1 -7.219049712091659 -0.2894196051827578 -5.101248644158297 
818 273 1 -5.562408164636524 -1.9495209585904174 -6.73188080271539 
819 273 1 1.7108184170308345 -1.507121045369482 1.559268221944233 
820 274 1 1.5751302710623438 5.314288575602621 8.254558633054863 
821 274 1 6.74723252265747 1.7642081763201762 4.96285292026786 
822 274 1 -4.340272958090903 -6.200922914637111 -1.7091317016555188 
823 275 1 8.5428142529191 6.073272282174848 -5.736894531008628 
824 275 1 -7.771460848843377 3.896471210869983 -4.616662012785777 
825 275 1 1.172104393906137 8.396215872707227 -0.09978281258667465 
826 276 1 0.801882744332568 -1.5816415613413444 0.5964368069209876 
827 276 1 5.697560892027742 -2.1646936876834317 -6.3516001116970315 
828 276 1 2.8287808499575 7.5916819876294 2.7548448068320788 
829 277 1 8.182826977834594 -1.7878956372199575 5.3375035976714305 
830 277 1 -4.0445284383386735 -7.1973866878781605 7.200565968108233 
831 277 1 -8.179239381670703 -5.68654796099107 8.225415203729202 
832 278 1 -2.4404378398425433 2.86018003186339 -7.72869002093236 
833 278 1 6.03673268463784 -6.716923828724119 6.059764353881691 
834 278 1 -5.746013294508647 -4.811539397112517 -7.724001433265714 
835 279 1 -2.458403646154607 -7.5577435294914554 5.925925382688536 
836 279 1 4.893445338879992 6.809072138613242 -3.662079929236783 
837 279 1 1.2880947533565923 -4.215377193015291 -6.59044173864158 
838 280 1 8.526631145280202 7.795285161584044 6.498573185448844 
839 280 1 -5.325007686161109 -5.563354237523882 -0.8909504420324197 
840 280 1 -3.1855899877978286 -2.1563555262346483 -6.411583957385309 
841 281 1 8.385257485579203 0.33211152745657735 -1.7557975312230552 
842 281 1 -1.4939275631836697 5.94491082859833 -0.5818798584944425 
843 281 1 -7.006643217330319 7.626919516673841 8.919536699480659 
844 282 1 2.031441166061679 3.6667404566658135 8.098355802068852 
845 282 1 1.9135088655874917 -2.897301985552099 1.764068431893481 
846 282 1 5.346322926450242 4.675725337487123 -3.2383569688179206 
847 283 1 3.892214155610384 -0.6865186013454192 5.165019438676143 
848 283 1 4.369899392066866 -6.382432423859275 0.06084664759750069 
849 283 1 6.152046037611063 -8.394711098413879 -1.965306126568236 
850 284 1 8.02265803367695 -7.451967199084227 -6.545802713413517 
851 284 1 -7.072377825258123 -2.015497632070023 3.8817939301014484 
852 284 1 8.55601659166285 0.37969706824750027 5.655026240054049 
853 285 1 -8.927606892470788 -2.03152173383158 -5.937906366334199 
854 285 1 -6.707982144482492 0.11855711944274461 -2.2050596303543992 
855 285 1 -0.6063450788728577 0.21732114417243587 5.696680701253047 
856 286 1 -8.547048009851002 2.0886144605917263 3.73396525424873 
857 286 1 7.598022024088415 -8.259542450901387 2.4585066108707743 
858 286 1 8.338029043017894 7.114146644053189 -0.8399379014048591 
859 287 1 -4.818303703474844 7.725744793473105 -0.8839719121597707 
860 287 1 -7.631548154639843 -3.680333771800748 -8.325774491410169 
861 287 1 6.083086537854657 -5.194348261649385 3.543193458370647 
862 288 1 8.568875801710863 4.883054309979816 8.728401595604605 
863 288 1 3.931222376354281 -5.9238883652225045 -6.477763383232348 
864 288 1 2.7334358090464352 4.426664494329909 1.8469555286396293 
865 289 1 8.631539362717628 1.2964698114460962 -4.412894951693031 
866 289 1 -7.12211881693183 -3.553509523090576 8.939554685753986 
867 289 1 3.468389181682504 -3.923998090259378 -3.3964694392445125 
868 290 1 -1.3344250655292953 -4.175298423913746 -2.5547729233623 
869 290 1 -0.7994291976145398 -2.751523757625555 5.01555349270663 
870 290 1 -7.277231833995239 -3.0783747905306216 0.7397687322623163 
871 291 1 5.169274707459589 -4.895832637781508 1.2727492452412505 
872 291 1 2.7269747057207177 -5.877215954521877 3.3952071262168086 
873 291 1 3.374118415834607 5.925658775635446 -6.433709773345971 
874 292 1 -1.044246461353369 0.9212699343609678 1.7563578932615158 
875 292 1 -6.891542423123328 -1.2599103928108466 7.836645877622228 
876 292 1 1.8594162718060687 -5.949329465201643 -0.8846204348758011 
877 293 1 -1.1438870953907285 2.6339806654436266 -1.4552273948051972 
878 293 1 -0.23425512138539517 -8.369553417994464 -6.687087347136495 
879 293 1 -2.125790371345042 8.916758047947585 -0.12621135089637825 
880 294 1 -2.036084498109094 -5.106913457226678 -1.4461359746700841 
881 294 1 5.632720883657097 -3.4918027510625596 -0.37633687672427385 
882 294 1 -8.95100288643912 1.7804315413768492 -0.518965982182829 
883 295 1 -8.261688926695683 0.35865167275336063 8.69309751833929 
884 295 1 5.553990378054346 3.2062509719947716 -6.003101293858977 
885 295 1 5.913606684383836 -0.726489835126845 -5.137162469089822 
886 296 1 3.2784243630548584 -6.573644704743087 0.951260080413201 
887 296 1 0.4584357629831395 -1.2249606190545093 -5.5592739166257665 
888 296 1 2.184301220319636 -7.746759833673115 -8.519208558237835 
889 297 1 1.8475011001338384 -4.36730686490362 3.4068841876314906 
890 297 1 6.494489274673452 6.873018628968412 6.166771705932323 
891 297 1 -2.491070838456327 -4.841766841622357 -6.377407203036361 
892 298 1 -0.7723728321351295 -1.4041557773145765 2.8466935965033855 
893 298 1 0.40859971405674855 3.695837468394055 -3.4353550330653704 
894 298 1 -4.791470372805532 -5.850572773669559 -6.608053248784007 
895 299 1 -4.915513292586781 -3.8543450130918604 -8.622197140325163 
896 299 1 3.2984223402280612 -0.8754379360552775 3.7051566989820977 
897 299 1 2.0495295083826903 -1.303233747963776 -7.243826062276488 
898 300 1 -2.2289282468546228 -1.9977787836888048 5.932322001379916 
899 300 1 6.2648257716536 -4.45487857241007 -0.7034451041352661 
900 300 1 -3.4011471782723515 7.023975132402974 7.822605139136243 
901 301 1 1.023611615891765 3.682059416904817 6.741656960882052 
902 301 1 6.158061465310329 -1.3487165447122589 7.645819599319935 
903 301 1 0.14162114940828374 8.069507779062615 -2.9504996943131827 
904 302 1 -6.845133416116991 5.613289435766044 -2.4236429872187086 
905 302 1 2.3020733246094203 6.697373732085129 -0.33350764259550836 
906 302 1 -7.56284264266943 7.963788287487169 4.38605259024728 
907 303 1 -5.658967190668539 8.085846267484541 3.792173971527543 
908 303 1 -6.371136005554897 8.253279114547965 -1.2570912116223303 
909 303 1 -6.067045683334573 -8.017818137760248 -0.21936008011172703 
910 304 1 3.1704655968128286 8.012818264788997 5.313081444002723 
911 304 1 1.337014944784828 -8.852650863746963 3.9428351477975383 
912 304 1 5.676550094345918 4.201976255683059 3.6411587088395923 
913 305 1 -5.887995071137285 3.570805716212158 -5.2094289788931505 
914 305 1 2.1236336485135165 -5.712677110574946 -7.869099558491012 
915 305 1 -6.047649205906984 7.960348338694935 -8.478763376704576 
916 306 1 -0.8621526961507051 0.6035884149712576 4.861790414842504 
917 306 1 -6.815940653610745 4.015205000572461 -2.448454664024985 
918 306 1 -0.7098909992216846 -8.06812437854411 5.097246325792266 
919 307 1 -6.5105315962082555 7.106454133211777 8.126067546546224 
920 307 1 2.6335132373930126 7.589190460351876 3.0243831019209217 
921 307 1 7.423871827950439 3.541611602970786 -3.5914740627414323 
922 308 1 -8.026767964494166 8.524640510605177 -8.095534320814863 
923 308 1 -3.3247215497965295 5.45195786381983 -5.383696188943445 
924 308 1 7.394757970455 -3.8903038714848615 3.7026764526529004 
925 309 1 -5.337227214437704 1.449444646935957 6.236429990078735 
926 309 1 -0.862791871711952 3.077382687148681 -0.7511521886168779 
927 309 1 3.6453369958380044 0.8254623424355465 1.2205565789156303 
928 310 1 1.611481043544062 7.402507994917663 -6.998734677014918 
929 310 1 -4.9732388169534865 -0.5825109780578277 5.105288185806375 
930 310 1 -6.236013897842333 6.831952366367975 -1.671724463654586 
931 311 1 5.274172752000931 -2.4259264266956952 0.5908856043425263 
932 311 1 -7.908478085928214 8.236341117624047 -2.940784408196275 
933 311 1 -6.479493671992659 -2.7773099268583588 3.283485134987929 
934 312 1 -5.134122236148304 -2.3347403116505907 4.324299363795223 
935 312 1 -8.697565842520655 0.05356108505516666 -5.813079996686106 
936 312 1 8.39577319504944 -8.157472200153679 7.562416881674771 
937 313 1 -1.8878270829037405 3.302673659516353 -2.10677416828303 
938 313 1 -5.155065502139978 -4.982443031028831 -2.067537810280224 
939 313 1 6.50666810977056 -2.347918888434113 -3.5441722519043104 
940 314 1 4.329987692271475 -3.8122767707807785 -4.567074667352593 
941 314 1 -7.866910533979605 -1.7611343523794494 4.290390287973228 
942 314 1 8.282941354334103 -4.812474824518711 1.733708412506008 
943 315 1 0.022344439708238184 4.938089218011594 -0.21657311732946383 
944 315 1 0.4044033112833425 -8.159507139268296 -7.969020097750306 
945 315 1 5.167149484967116 0.960938683644553 5.751588887568584 
946 316 1 0.0212502971438564 4.088913198009344 0.9541127341939699 
947 316 1 5.678157806089132 -3.168546611490827 2.58557522885771 
948 316 1 -0.6247859627691952 2.6637256453040212 2.0318171737123603 
949 317 1 5.840477121311471 0.7786650272896267 -8.262070864192218 
950 317 1 3.694165743069041 3.4862235726824196 0.7516790863711229 
951 317 1 8.818869880379587 -1.6512781007106545 0.13794822497112236 
952 318 1 -7.870083010206583 -2.06329268287052 2.3884187042826266 
953 318 1 -4.30419218367832 3.680448096024632 3.583537361005831 
954 318 1 -1.0714428069760604 -8.524041741010002 3.1669530899764986 
955 319 1 8.830854580534236 -3.532340757966473 -3.791386643730556 
956 319 1 7.965883944134298 -0.01131538814801658 -4.686033654999299 
957 319 1 -4.871012709547578 -7.122147442142536 -0.5869395498630308 
958 320 1 0.5096491206506251 -2.3849263371097313 -4.144892860968119 
959 320 1 6.501396697593844 -5.342298065368274 -8.912204278190348 
960 320 1 1.8857113947479593 -8.68317105594473 -2.761788809640339 
961 321 1 7.323953442183743 -4.849865216892791 5.334512242651364 
962 321 1 7.1302118316042815 -2.604440018339222 -4.454394461016827 
963 321 1 5.850572596061765 -8.162914130436366 -7.7849208401519014 
964 322 1 5.335683048891667 4.320988549708989 -1.7045115385302232 
965 322 1 -6.0505369777573055 -6.125478092866309 0.32466349231312286 
966 322 1 6.8724085417926855 3.175402274052484 2.0428814060020155 
967 323 1 2.5329098085667923 0.923929875038958 5.239660165640499 
968 323 1 8.918802522507608 3.3068275327348218 -2.469208142347699 
969 323 1 -1.6926149233581986 -6.041961955017897 -0.6327834807373875 
970 324 1 -0.33774366550695767 0.5832221260833617 -6.745708996008474 
971 324 1 2.228547273669321 -3.4678639400327747 -7.689804510867109 
972 324 1 2.921734260868689 4.556169243802488 6.587675555251398 
973 325 1 2.3828349959804243 8.080172630853554 -5.581630075983982 
974 325 1 2.2940072320534632 -8.68267497349455 -8.400094353214703 
975 325 1 -0.5635928622617179 3.2149561911585582 -1.7602128283615555 
976 326 1 -6.063705673858125 8.134859562976278 -6.760252099224315 
977 326 1 0.26069607155507946 -5.145517845207034 2.3821088577508984 
978 326 1 4.983606258536252 1.180683912917555 3.673104859942267 
979 327 1 1.384867024064203 -3.1700396929985057 -2.994637666112279 
980 327 1 -4.84739116975532 0.3138336275940219 -4.539819668621003 
981 327 1 -3.730507512185211 -6.520012035063174 -1.4954420084164042 
982 328 1 -1.2117772272549834 6.118021255336458 -6.787056852367463 
983 328 1 -7.345272422645577 -6.8733009080026575 -6.275462671445464 
984 328 1 -8.65938950736388 2.4103471400401464 -5.270872974697129 
985 329 1 0.7585355959965447 6.2002998629558785 3.744657019099156 
986 329 1 -5.744707906373491 -8.586353586396212 7.380957957170228 
987 329 1 -4.609182206386543 -3.4603646346733985 -0.9646619168538617 
988 330 1 -1.213037132120843 4.992711078783115 0.1657859603374785 
989 330 1 5.3645428780507185 -7.778180570923448 -8.522804537816448 
990 330 1 7.433694909665434 8.7904318291787 -2.5826407703370453 
991 331 1 4.62424073059371 -6.076496637793305 -4.898950587000623 
992 331 1 5.8775839578759115 5.424315251679351 -2.583682227504628 
993 331 1 4.629650127244977 2.9711558222320082 -1.4079937060608634 
994 332 1 -2.913388463043769 8.221119103843531 -1.5482752052448205 
995 332 1 -4.4035467682459695 -6.307156740891176 -3.2931828351815966 
996 332 1 -5.755617315716939 -4.69687839599214 -4.05879892059389 
997 333 1 5.487932185987091 -8.316066800421684 -5.71874915930897 
998 333 1 3.827276975678604 4.466536800284226 0.26896419133858984 
999 333 1 -6.2924840747402175 -8.543060455237523 -2.1337658560169555 
1000 334 1 -3.1729984308412726 0.331487913116673 4.009962025098416 
1001 334 1 4.536281232948921 -8.61817626449595 -7.0345441443952845 
1002 334 1 -7.409703436461212 -3.480762983620714 3.5288278879097152 
1003 335 1 -4.003680070876623 -4.8577890283373435 1.5967309901120732 
1004 335 1 0.11555157175537012 7.195897070253821 -6.771153365944675 
1005 335 1 -2.5072328907328174 6.343741365088395 -2.4914317816671883 
1006 336 1 -2.4735694857312467 8.19021383223572 2.0908615556623733 
1007 336 1 -6.231529013773557 3.034391951594415 -1.565753986986758 
1008 336 1 -7.0692132478899055 6.48937837679863 -7.52324753425425 
1009 337 1 6.671833623218399 7.327064716663024 7.934201334373242 
1010 337 1 -1.026516938915015 4.924080136454158 8.11626112352534 
1011 337 1 3.7811483937392474 3.761542689225273 -6.188041330073746 
1012 338 1 7.268287795156272 1.763566716973532 -7.429928134886778 
1013 338 1 -6.111507663510318 -0.08628291706458313 -3.0075093637402492 
1014 338 1 -5.1696186825219375 -8.659657498683039 2.1563069104433445 
1015 339 1 -1.7125088589753412 0.8836596592860708 -0.30773563132250814 
1016 339 1 5.34833941128967 -1.1830060315339406 6.92182466358042 
1017 339 1 -1.3387499096831297 5.676295169229789 2.032324799790036 
1018 340 1 -0.7304394097238074 7.79985866633881 -4.549318410477372 
1019 340 1 -4.091972121056282 8.658236294048958 -0.5402019541807306 
1020 340 1 5.637640415355069 -7.152260166196672 6.6557918213850975 
1021 341 1 -8.322859092608738 -0.8668544310636772 -4.305460304245486 
1022 341 1 -1.2308750796089356 -4.84031258583161 -4.528432403561038 
1023 341 1 -5.012513073474673 -5.499825681785699 -2.854929548690956 
1024 342 1 -6.790236498520268 7.2013873288203705 7.294104114347807 
1025 342 1 5.717568570384268 2.0680161396596226 -5.860843595374672 
1026 342 1 -2.7536301005694446 8.877888321962054 -2.2236898772127187 
1027 343 1 8.379582514238464 -3.1846018161555536 -5.888649914641382 
1028 343 1 8.470758594985135 -3.6759741959412517 3.7836029940879 
1029 343 1 4.177566235165358 8.320638623814904 -5.579053765653947 
1030 344 1 7.179703788209199 4.067169051651877 -6.042995619849322 
1031 344 1 -7.674582352114221 5.779957288482073 -4.416741131916787 
1032 344 1 -8.058219272657436 -5.667722261453978 1.8773381763009436 
1033 345 1 1.6896983524879836 -0.7646554807674626 2.4256354375115556 
1034 345 1 2.6347608090147023 1.5909478956412872 -5.68071134289782 
1035 345 1 5.26528793282387 -6.770928634664562 4.794900995300413 
1036 346 1 -6.073223904882024 6.904586978540209 -2.2527591342203976 
1037 346 1 -6.083700737167304 -7.469623315186819 4.7495487726216155 
1038 346 1 -4.6776350125840365 2.971644404644998 -0.5901994910280806 
1039 347 1 -4.625638185443509 -2.244818118003254 -2.1399334804434575 
1040 347 1 -3.9401183532233484 -8.273339503372236 -8.892265871846503 
1041 347 1 0.011723724571913507 -4.2028053282166775 -7.7917725128308675 
1042 348 1 7.335622220117621 1.344478161976582 8.907943417465834 
1043 348 1 5.8701865227775265 -4.441132976542191 -0.769532837540023 
1044 348 1 -4.985599858814746 5.65071639390759 -4.127551512487139 
1045 349 1 1.3454833003306046 6.802066365847978 -8.806855520421529 
1046 349 1 2.356530970582469 1.469855497549343 0.2980675507116999 
1047 349 1 2.259626166687344 -5.919551680658453 -4.595606700689098 
1048 350 1 -3.432813170351622 -2.9184240655840856 8.826642435648342 
1049 350 1 -7.992028686482033 3.2773639151979577 -8.390627663386038 
1050 350 1 -6.162251040824551 3.212496747716207 -7.534237389089518 
1051 351 1 6.242138581584717 5.413216929086314 6.560497901051809 
1052 351 1 -0.5859891764685443 -0.24520894996427245 -2.7766681392006927 
1053 351 1 5.232455636435251 -6.309747471766703 8.673183726343378 
1054 352 1 -3.311417208310102 2.492591002468405 -0.10971912396496286 
1055 352 1 -8.188276437229684 2.081615140338803 -4.0424242967974475 
1056 352 1 -6.912045977800343 4.543554603135426 5.3334848200221945 
1057 353 1 -4.931284682668053 5.66476329703953 -7.24235778841569 
1058 353 1 2.3661371423101585 -8.599753303136346 -5.2341042427936735 
1059 353 1 -1.2298009309047568 3.6600989232712404 3.5080151511945683 
1060 354 1 8.229064808363454 -3.8251561020832563 5.753224831315364 
1061 354 1 0.2391730482419554 -1.3001032572877573 -5.953349654108218 
1062 354 1 -1.5046740324979169 4.423034251419743 2.6949013667437374 
1063 355 1 -4.71733904197271 -2.0527493587029015 4.365928324198164 
1064 355 1 -4.6164934537121685 5.245810081920167 0.7817649763364862 
1065 355 1 1.879238668395864 -7.194202897291759 -8.004884333915733 
1066 356 1 3.0727435889749035 -3.5442405496983422 6.576991659449249 
1067 356 1 -5.205384577868589 7.690825812711925 -8.363248550730686 
1068 356 1 5.0617786549721515 -6.914805725490654 -1.2268158747108915 
1069 357 1 1.9674050483707486 -7.126971850398734 -8.830334600376275 
1070 357 1 -3.665682908494267 2.145385395562842 -7.158230969704991 
1071 357 1 2.574862237359776 2.0395658476110174 -1.505839457097288 
1072 358 1 6.8460377284697085 -8.716553665738317 4.711819931862843 
1073 358 1 4.5289682042676915 -4.630541153290023 -5.672301780881954 
1074 358 1 -4.326882675944409 0.2664605703251972 -7.985388004442882 
1075 359 1 -6.463058482051524 6.51844367607775 -3.039423511225208 
1076 359 1 1.0407155224792692 1.7964325953294509 -8.888908525067441 
1077 359 1 -7.893608555491357 -3.040326476782088 -2.3016179181950864 
1078 360 1 1.1466920680235884 8.120343554700764 -2.313062854062208 
1079 360 1 2.9262945189111385 5.8704573939572136 6.044487468790184 
1080 360 1 -1.7804901987154214 -3.48751271777063 -2.256586838930379 

Bonds
#bondID bondType particlesBonding
1 1 1 2 
2 1 2 3 
3 1 4 5 
4 1 5 6 
5 1 7 8 
6 1 8 9 
7 1 10 11 
8 1 11 12 
9 1 13 14 
10 1 14 15 
11 1 16 17 
12 1 17 18 
13 1 19 20 
14 1 20 21 
15 1 22 23 
16 1 23 24 
17 1 25 26 
18 1 26 27 
19 1 28 29 
20 1 29 30 
21 1 31 32 
22 1 32 33 
23 1 34 35 
24 1 35 36 
25 1 37 38 
26 1 38 39 
27 1 40 41 
28 1 41 42 
29 1 43 44 
30 1 44 45 
31 1 46 47 
32 1 47 48 
33 1 49 50 
34 1 50 51 
35 1 52 53 
36 1 53 54 
37 1 55 56 
38 1 56 57 
39 1 58 59 
40 1 59 60 
41 1 61 62 
42 1 62 63 
43 1 64 65 
44 1 65 66 
45 1 67 68 
46 1 68 69 
47 1 70 71 
48 1 71 72 
49 1 73 74 
50 1 74 75 
51 1 76 77 
52 1 77 78 
53 1 79 80 
54 1 80 81 
55 1 82 83 
56 1 83 84 
57 1 85 86 
58 1 86 87 
59 1 88 89 
60 1 89 90 
61 1 91 92 
62 1 92 93 
63 1 94 95 
64 1 95 96 
65 1 97 98 
66 1 98 99 
67 1 100 101 
68 1 101 102 
69 1 103 104 
70 1 104 105 
71 1 106 107 
72 1 107 108 
73 1 109 110 
74 1 110 111 
75 1 112 113 
76 1 113 114 
77 1 115 116 
78 1 116 117 
79 1 118 119 
80 1 119 120 
81 1 121 122 
82 1 122 123 
83 1 124 125 
84 1 125 126 
85 1 127 128 
86 1 128 129 
87 1 130 131 
88 1 131 132 
89 1 133 134 
90 1 134 135 
91 1 136 137 
92 1 137 138 
93 1 139 140 
94 1 140 141 
95 1 142 143 
96 1 143 144 
97 1 145 146 
98 1 146 147 
99 1 148 149 
100 1 149 150 
101 1 151 152 
102 1 152 153 
103 1 154 155 
104 1 155 156 
105 1 157 158 
106 1 158 159 
107 1 160 161 
108 1 161 162 
109 1 163 164 
110 1 164 165 
111 1 166 167 
112 1 167 168 
113 1 169 170 
114 1 170 171 
115 1 172 173 
116 1 173 174 
117 1 175 176 
118 1 176 177 
119 1 178 179 
120 1 179 180 
121 1 181 182 
122 1 182 183 
123 1 184 185 
124 1 185 186 
125 1 187 188 
126 1 188 189 
127 1 190 191 
128 1 191 192 
129 1 193 194 
130 1 194 195 
131 1 196 197 
132 1 197 198 
133 1 199 200 
134 1 200 201 
135 1 202 203 
136 1 203 204 
137 1 205 206 
138 1 206 207 
139 1 208 209 
140 1 209 210 
141 1 211 212 
142 1 212 213 
143 1 214 215 
144 1 215 216 
145 1 217 218 
146 1 218 219 
147 1 220 221 
148 1 221 222 
149 1 223 224 
150 1 224 225 
151 1 226 227 
152 1 227 228 
153 1 229 230 
154 1 230 231 
155 1 232 233 
156 1 233 234 
157 1 235 236 
158 1 236 237 
159 1 238 239 
160 1 239 240 
161 1 241 242 
162 1 242 243 
163 1 244 245 
164 1 245 246 
165 1 247 248 
166 1 248 249 
167 1 250 251 
168 1 251 252 
169 1 253 254 
170 1 254 255 
171 1 256 257 
172 1 257 258 
173 1 259 260 
174 1 260 261 
175 1 262 263 
176 1 263 264 
177 1 265 266 
178 1 266 267 
179 1 268 269 
180 1 269 270 
181 1 271 272 
182 1 272 273 
183 1 274 275 
184 1 275 276 
185 1 277 278 
186 1 278 279 
187 1 280 281 
188 1 281 282 
189 1 283 284 
190 1 284 285 
191 1 286 287 
192 1 287 288 
193 1 289 290 
194 1 290 291 
195 1 292 293 
196 1 293 294 
197 1 295 296 
198 1 296 297 
199 1 298 299 
200 1 299 300 
201 1 301 302 
202 1 302 303 
203 1 304 305 
204 1 305 306 
205 1 307 308 
206 1 308 309 
207 1 310 311 
208 1 311 312 
209 1 313 314 
210 1 314 315 
211 1 316 317 
212 1 317 318 
213 1 319 320 
214 1 320 321 
215 1 322 323 
216 1 323 324 
217 1 325 326 
218 1 326 327 
219 1 328 329 
220 1 329 330 
221 1 331 332 
222 1 332 333 
223 1 334 335 
224 1 335 336 
225 1 337 338 
226 1 338 339 
227 1 340 341 
228 1 341 342 
229 1 343 344 
230 1 344 345 
231 1 346 347 
232 1 347 348 
233 1 349 350 
234 1 350 351 
235 1 352 353 
236 1 353 354 
237 1 355 356 
238 1 356 357 
239 1 358 359 
240 1 359 360 
241 1 361 362 
242 1 362 363 
243 1 364 365 
244 1 365 366 
245 1 367 368 
246 1 368 369 
247 1 370 371 
248 1 371 372 
249 1 373 374 
250 1 374 375 
251 1 376 377 
252 1 377 378 
253 1 379 380 
254 1 380 381 
255 1 382 383 
256 1 383 384 
257 1 385 386 
258 1 386 387 
259 1 388 389 
260 1 389 390 
261 1 391 392 
262 1 392 393 
263 1 394 395 
264 1 395 396 
265 1 397 398 
266 1 398 399 
267 1 400 401 
268 1 401 402 
269 1 403 404 
270 1 404 405 
271 1 406 407 
272 1 407 408 
273 1 409 410 
274 1 410 411 
275 1 412 413 
276 1 413 414 
277 1 415 416 
278 1 416 417 
279 1 418 419 
280 1 419 420 
281 1 421 422 
282 1 422 423 
283 1 424 425 
284 1 425 426 
285 1 427 428 
286 1 428 429 
287 1 430 431 
288 1 431 432 
289 1 433 434 
290 1 434 435 
291 1 436 437 
292 1 437 438 
293 1 439 440 
294 1 440 441 
295 1 442 443 
296 1 443 444 
297 1 445 446 
298 1 446 447 
299 1 448 449 
300 1 449 450 
301 1 451 452 
302 1 452 453 
303 1 454 455 
304 1 455 456 
305 1 457 458 
306 1 458 459 
307 1 460 461 
308 1 461 462 
309 1 463 464 
310 1 464 465 
311 1 466 467 
312 1 467 468 
313 1 469 470 
314 1 470 471 
315 1 472 473 
316 1 473 474 
317 1 475 476 
318 1 476 477 
319 1 478 479 
320 1 479 480 
321 1 481 482 
322 1 482 483 
323 1 484 485 
324 1 485 486 
325 1 487 488 
326 1 488 489 
327 1 490 491 
328 1 491 492 
329 1 493 494 
330 1 494 495 
331 1 496 497 
332 1 497 498 
333 1 499 500 
334 1 500 501 
335 1 502 503 
336 1 503 504 
337 1 505 506 
338 1 506 507 
339 1 508 509 
340 1 509 510 
341 1 511 512 
342 1 512 513 
343 1 514 515 
344 1 515 516 
345 1 517 518 
346 1 518 519 
347 1 520 521 
348 1 521 522 
349 1 523 524 
350 1 524 525 
351 1 526 527 
352 1 527 528 
353 1 529 530 
354 1 530 531 
355 1 532 533 
356 1 533 534 
357 1 535 536 
358 1 536 537 
359 1 538 539 
360 1 539 540 
361 1 541 542 
362 1 542 543 
363 1 544 545 
364 1 545 546 
365 1 547 548 
366 1 548 549 
367 1 550 551 
368 1 551 552 
369 1 553 554 
370 1 554 555 
371 1 556 557 
372 1 557 558 
373 1 559 560 
374 1 560 561 
375 1 562 563 
376 1 563 564 
377 1 565 566 
378 1 566 567 
379 1 568 569 
380 1 569 570 
381 1 571 572 
382 1 572 573 
383 1 574 575 
384 1 575 576 
385 1 577 578 
386 1 578 579 
387 1 580 581 
388 1 581 582 
389 1 583 584 
390 1 584 585 
391 1 586 587 
392 1 587 588 
393 1 589 590 
394 1 590 591 
395 1 592 593 
396 1 593 594 
397 1 595 596 
398 1 596 597 
399 1 598 599 
400 1 599 600 
401 1 601 602 
402 1 602 603 
403 1 604 605 
404 1 605 606 
405 1 607 608 
406 1 608 609 
407 1 610 611 
408 1 611 612 
409 1 613 614 
410 1 614 615 
411 1 616 617 
412 1 617 618 
413 1 619 620 
414 1 620 621 
415 1 622 623 
416 1 623 624 
417 1 625 626 
418 1 626 627 
419 1 628 629 
420 1 629 630 
421 1 631 632 
422 1 632 633 
423 1 634 635 
424 1 635 636 
425 1 637 638 
426 1 638 639 
427 1 640 641 
428 1 641 642 
429 1 643 644 
430 1 644 645 
431 1 646 647 
432 1 647 648 
433 1 649 650 
434 1 650 651 
435 1 652 653 
436 1 653 654 
437 1 655 656 
438 1 656 657 
439 1 658 659 
440 1 659 660 
441 1 661 662 
442 1 662 663 
443 1 664 665 
444 1 665 666 
445 1 667 668 
446 1 668 669 
447 1 670 671 
448 1 671 672 
449 1 673 674 
450 1 674 675 
451 1 676 677 
452 1 677 678 
453 1 679 680 
454 1 680 681 
455 1 682 683 
456 1 683 684 
457 1 685 686 
458 1 686 687 
459 1 688 689 
460 1 689 690 
461 1 691 692 
462 1 692 693 
463 1 694 695 
464 1 695 696 
465 1 697 698 
466 1 698 699 
467 1 700 701 
468 1 701 702 
469 1 703 704 
470 1 704 705 
471 1 706 707 
472 1 707 708 
473 1 709 710 
474 1 710 711 
475 1 712 713 
476 1 713 714 
477 1 715 716 
478 1 716 717 
479 1 718 719 
480 1 719 720 
481 1 721 722 
482 1 722 723 
483 1 724 725 
484 1 725 726 
485 1 727 728 
486 1 728 729 
487 1 730 731 
488 1 731 732 
489 1 733 734 
490 1 734 735 
491 1 736 737 
492 1 737 738 
493 1 739 740 
494 1 740 741 
495 1 742 743 
496 1 743 744 
497 1 745 746 
498 1 746 747 
499 1 748 749 
500 1 749 750 
501 1 751 752 
502 1 752 753 
503 1 754 755 
504 1 755 756 
505 1 757 758 
506 1 758 759 
507 1 760 761 
508 1 761 762 
509 1 763 764 
510 1 764 765 
511 1 766 767 
512 1 767 768 
513 1 769 770 
514 1 770 771 
515 1 772 773 
516 1 773 774 
517 1 775 776 
518 1 776 777 
519 1 778 779 
520 1 779 780 
521 1 781 782 
522 1 782 783 
523 1 784 785 
524 1 785 786 
525 1 787 788 
526 1 788 789 
527 1 790 791 
528 1 791 792 
529 1 793 794 
530 1 794 795 
531 1 796 797 
532 1 797 798 
533 1 799 800 
534 1 800 801 
535 1 802 803 
536 1 803 804 
537 1 805 806 
538 1 806 807 
539 1 808 809 
540 1 809 810 
541 1 811 812 
542 1 812 813 
543 1 814 815 
544 1 815 816 
545 1 817 818 
546 1 818 819 
547 1 820 821 
548 1 821 822 
549 1 823 824 
550 1 824 825 
551 1 826 827 
552 1 827 828 
553 1 829 830 
554 1 830 831 
555 1 832 833 
556 1 833 834 
557 1 835 836 
558 1 836 837 
559 1 838 839 
560 1 839 840 
561 1 841 842 
562 1 842 843 
563 1 844 845 
564 1 845 846 
565 1 847 848 
566 1 848 849 
567 1 850 851 
568 1 851 852 
569 1 853 854 
570 1 854 855 
571 1 856 857 
572 1 857 858 
573 1 859 860 
574 1 860 861 
575 1 862 863 
576 1 863 864 
577 1 865 866 
578 1 866 867 
579 1 868 869 
580 1 869 870 
581 1 871 872 
582 1 872 873 
583 1 874 875 
584 1 875 876 
585 1 877 878 
586 1 878 879 
587 1 880 881 
588 1 881 882 
589 1 883 884 
590 1 884 885 
591 1 886 887 
592 1 887 888 
593 1 889 890 
594 1 890 891 
595 1 892 893 
596 1 893 894 
597 1 895 896 
598 1 896 897 
599 1 898 899 
600 1 899 900 
601 1 901 902 
602 1 902 903 
603 1 904 905 
604 1 905 906 
605 1 907 908 
606 1 908 909 
607 1 910 911 
608 1 911 912 
609 1 913 914 
610 1 914 915 
611 1 916 917 
612 1 917 918 
613 1 919 920 
614 1 920 921 
615 1 922 923 
616 1 923 924 
617 1 925 926 
618 1 926 927 
619 1 928 929 
620 1 929 930 
621 1 931 932 
622 1 932 933 
623 1 934 935 
624 1 935 936 
625 1 937 938 
626 1 938 939 
627 1 940 941 
628 1 941 942 
629 1 943 944 
630 1 944 945 
631 1 946 947 
632 1 947 948 
633 1 949 950 
634 1 950 951 
635 1 952 953 
636 1 953 954 
637 1 955 956 
638 1 956 957 
639 1 958 959 
640 1 959 960 
641 1 961 962 
642 1 962 963 
643 1 964 965 
644 1 965 966 
645 1 967 968 
646 1 968 969 
647 1 970 971 
648 1 971 972 
649 1 973 974 
650 1 974 975 
651 1 976 977 
652 1 977 978 
653 1 979 980 
654 1 980 981 
655 1 982 983 
656 1 983 984 
657 1 985 986 
658 1 986 987 
659 1 988 989 
660 1 989 990 
661 1 991 992 
662 1 992 993 
663 1 994 995 
664 1 995 996 
665 1 997 998 
666 1 998 999 
667 1 1000 1001 
668 1 1001 1002 
669 1 1003 1004 
670 1 1004 1005 
671 1 1006 1007 
672 1 1007 1008 
673 1 1009 1010 
674 1 1010 1011 
675 1 1012 1013 
676 1 1013 1014 
677 1 1015 1016 
678 1 1016 1017 
679 1 1018 1019 
680 1 1019 1020 
681 1 1021 1022 
682 1 1022 1023 
683 1 1024 1025 
684 1 1025 1026 
685 1 1027 1028 
686 1 1028 1029 
687 1 1030 1031 
688 1 1031 1032 
689 1 1033 1034 
690 1 1034 1035 
691 1 1036 1037 
692 1 1037 1038 
693 1 1039 1040 
694 1 1040 1041 
695 1 1042 1043 
696 1 1043 1044 
697 1 1045 1046 
698 1 1046 1047 
699 1 1048 1049 
700 1 1049 1050 
701 1 1051 1052 
702 1 1052 1053 
703 1 1054 1055 
704 1 1055 1056 
705 1 1057 1058 
706 1 1058 1059 
707 1 1060 1061 
708 1 1061 1062 
709 1 1063 1064 
710 1 1064 1065 
711 1 1066 1067 
712 1 1067 1068 
713 1 1069 1070 
714 1 1070 1071 
715 1 1072 1073 
716 1 1073 1074 
717 1 1075 1076 
718 1 1076 1077 
719 1 1078 1079 
720 1 1079 1080 

Angles
#angleID angleType particle1 particle2 particle3
1 1 1 2 3
2 1 4 5 6
3 1 7 8 9
4 1 10 11 12
5 1 13 14 15
6 1 16 17 18
7 1 19 20 21
8 1 22 23 24
9 1 25 26 27
10 1 28 29 30
11 1 31 32 33
12 1 34 35 36
13 1 37 38 39
14 1 40 41 42
15 1 43 44 45
16 1 46 47 48
17 1 49 50 51
18 1 52 53 54
19 1 55 56 57
20 1 58 59 60
21 1 61 62 63
22 1 64 65 66
23 1 67 68 69
24 1 70 71 72
25 1 73 74 75
26 1 76 77 78
27 1 79 80 81
28 1 82 83 84
29 1 85 86 87
30 1 88 89 90
31 1 91 92 93
32 1 94 95 96
33 1 97 98 99
34 1 100 101 102
35 1 103 104 105
36 1 106 107 108
37 1 109 110 111
38 1 112 113 114
39 1 115 116 117
40 1 118 119 120
41 1 121 122 123
42 1 124 125 126
43 1 127 128 129
44 1 130 131 132
45 1 133 134 135
46 1 136 137 138
47 1 139 140 141
48 1 142 143 144
49 1 145 146 147
50 1 148 149 150
51 1 151 152 153
52 1 154 155 156
53 1 157 158 159
54 1 160 161 162
55 1 163 164 165
56 1 166 167 168
57 1 169 170 171
58 1 172 173 174
59 1 175 176 177
60 1 178 179 180
61 1 181 182 183
62 1 184 185 186
63 1 187 188 189
64 1 190 191 192
65 1 193 194 195
66 1 196 197 198
67 1 199 200 201
68 1 202 203 204
69 1 205 206 207
70 1 208 209 210
71 1 211 212 213
72 1 214 215 216
73 1 217 218 219
74 1 220 221 222
75 1 223 224 225
76 1 226 227 228
77 1 229 230 231
78 1 232 233 234
79 1 235 236 237
80 1 238 239 240
81 1 241 242 243
82 1 244 245 246
83 1 247 248 249
84 1 250 251 252
85 1 253 254 255
86 1 256 257 258
87 1 259 260 261
88 1 262 263 264
89 1 265 266 267
90 1 268 269 270
91 1 271 272 273
92 1 274 275 276
93 1 277 278 279
94 1 280 281 282
95 1 283 284 285
96 1 286 287 288
97 1 289 290 291
98 1 292 293 294
99 1 295 296 297
100 1 298 299 300
101 1 301 302 303
102 1 304 305 306
103 1 307 308 309
104 1 310 311 312
105 1 313 314 315
106 1 316 317 318
107 1 319 320 321
108 1 322 323 324
109 1 325 326 327
110 1 328 329 330
111 1 331 332 333
112 1 334 335 336
113 1 337 338 339
114 1 340 341 342
115 1 343 344 345
116 1 346 347 348
117 1 349 350 351
118 1 352 353 354
119 1 355 356 357
120 1 358 359 360
121 1 361 362 363
122 1 364 365 366
123 1 367 368 369
124 1 370 371 372
125 1 373 374 375
126 1 376 377 378
127 1 379 380 381
128 1 382 383 384
129 1 385 386 387
130 1 388 389 390
131 1 391 392 393
132 1 394 395 396
133 1 397 398 399
134 1 400 401 402
135 1 403 404 405
136 1 406 407 408
137 1 409 410 411
138 1 412 413 414
139 1 415 416 417
140 1 418 419 420
141 1 421 422 423
142 1 424 425 426
143 1 427 428 429
144 1 430 431 432
145 1 433 434 435
146 1 436 437 438
147 1 439 440 441
148 1 442 443 444
149 1 445 446 447
150 1 448 449 450
151 1 451 452 453
152 1 454 455 456
153 1 457 458 459
154 1 460 461 462
155 1 463 464 465
156 1 466 467 468
157 1 469 470 471
158 1 472 473 474
159 1 475 476 477
160 1 478 479 480
161 1 481 482 483
162 1 484 485 486
163 1 487 488 489
164 1 490 491 492
165 1 493 494 495
166 1 496 497 498
167 1 499 500 501
168 1 502 503 504
169 1 505 506 507
170 1 508 509 510
171 1 511 512 513
172 1 514 515 516
173 1 517 518 519
174 1 520 521 522
175 1 523 524 525
176 1 526 527 528
177 1 529 530 531
178 1 532 533 534
179 1 535 536 537
180 1 538 539 540
181 1 541 542 543
182 1 544 545 546
183 1 547 548 549
184 1 550 551 552
185 1 553 554 555
186 1 556 557 558
187 1 559 560 561
188 1 562 563 564
189 1 565 566 567
190 1 568 569 570
191 1 571 572 573
192 1 574 575 576
193 1 577 578 579
194 1 580 581 582
195 1 583 584 585
196 1 586 587 588
197 1 589 590 591
198 1 592 593 594
199 1 595 596 597
200 1 598 599 600
201 1 601 602 603
202 1 604 605 606
203 1 607 608 609
204 1 610 611 612
205 1 613 614 615
206 1 616 617 618
207 1 619 620 621
208 1 622 623 624
209 1 625 626 627
210 1 628 629 630
211 1 631 632 633
212 1 634 635 636
213 1 637 638 639
214 1 640 641 642
215 1 643 644 645
216 1 646 647 648
217 1 649 650 651
218 1 652 653 654
219 1 655 656 657
220 1 658 659 660
221 1 661 662 663
222 1 664 665 666
223 1 667 668 669
224 1 670 671 672
225 1 673 674 675
226 1 676 677 678
227 1 679 680 681
228 1 682 683 684
229 1 685 686 687
230 1 688 689 690
231 1 691 692 693
232 1 694 695 696
233 1 697 698 699
234 1 700 701 702
235 1 703 704 705
236 1 706 707 708
237 1 709 710 711
238 1 712 713 714
239 1 715 716 717
240 1 718 719 720
241 1 721 722 723
242 1 724 725 726
243 1 727 728 729
244 1 730 731 732
245 1 733 734 735
246 1 736 737 738
247 1 739 740 741
248 1 742 743 744
249 1 745 746 747
250 1 748 749 750
251 1 751 752 753
252 1 754 755 756
253 1 757 758 759
254 1 760 761 762
255 1 763 764 765
256 1 766 767 768
257 1 769 770 771
258 1 772 773 774
259 1 775 776 777
260 1 778 779 780
261 1 781 782 783
262 1 784 785 786
263 1 787 788 789
264 1 790 791 792
265 1 793 794 795
266 1 796 797 798
267 1 799 800 801
268 1 802 803 804
269 1 805 806 807
270 1 808 809 810
271 1 811 812 813
272 1 814 815 816
273 1 817 818 819
274 1 820 821 822
275 1 823 824 825
276 1 826 827 828
277 1 829 830 831
278 1 832 833 834
279 1 835 836 837
280 1 838 839 840
281 1 841 842 843
282 1 844 845 846
283 1 847 848 849
284 1 850 851 852
285 1 853 854 855
286 1 856 857 858
287 1 859 860 861
288 1 862 863 864
289 1 865 866 867
290 1 868 869 870
291 1 871 872 873
292 1 874 875 876
293 1 877 878 879
294 1 880 881 882
295 1 883 884 885
296 1 886 887 888
297 1 889 890 891
298 1 892 893 894
299 1 895 896 897
300 1 898 899 900
301 1 901 902 903
302 1 904 905 906
303 1 907 908 909
304 1 910 911 912
305 1 913 914 915
306 1 916 917 918
307 1 919 920 921
308 1 922 923 924
309 1 925 926 927
310 1 928 929 930
311 1 931 932 933
312 1 934 935 936
313 1 937 938 939
314 1 940 941 942
315 1 943 944 945
316 1 946 947 948
317 1 949 950 951
318 1 952 953 954
319 1 955 956 957
320 1 958 959 960
321 1 961 962 963
322 1 964 965 966
323 1 967 968 969
324 1 970 971 972
325 1 973 974 975
326 1 976 977 978
327 1 979 980 981
328 1 982 983 984
329 1 985 986 987
330 1 988 989 990
331 1 991 992 993
332 1 994 995 996
333 1 997 998 999
334 1 1000 1001 1002
335 1 1003 1004 1005
336 1 1006 1007 1008
337 1 1009 1010 1011
338 1 1012 1013 1014
339 1 1015 1016 1017
340 1 1018 1019 1020
341 1 1021 1022 1023
342 1 1024 1025 1026
343 1 1027 1028 1029
344 1 1030 1031 1032
345 1 1033 1034 1035
346 1 1036 1037 1038
347 1 1039 1040 1041
348 1 1042 1043 1044
349 1 1045 1046 1047
350 1 1048 1049 1050
351 1 1051 1052 1053
352 1 1054 1055 1056
353 1 1057 1058 1059
354 1 1060 1061 1062
355 1 1063 1064 1065
356 1 1066 1067 1068
357 1 1069 1070 1071
358 1 1072 1073 1074
359 1 1075 1076 1077
360 1 1078 1079 1080
