ITEM: TIMESTEP
0
ITEM: NUMBER OF ENTRIES
20
ITEM: BOX BOUNDS pp pp pp
-1.0000000000000000e+01 1.0000000000000000e+01
-1.0000000000000000e+01 1.0000000000000000e+01
-1.0000000000000000e+01 1.0000000000000000e+01
ITEM: ENTRIES index c_bondedatomid1 c_bondedatomid2 c_btype
1 4 5 1 
2 5 6 1 
3 1 2 1 
4 2 3 1 
5 23 24 1 
6 22 23 1 
7 7 8 1 
8 8 9 1 
9 19 20 1 
10 20 21 1 
11 13 14 1 
12 14 15 1 
13 25 26 1 
14 26 27 1 
15 17 18 1 
16 16 17 1 
17 10 11 1 
18 11 12 1 
19 28 29 1 
20 29 30 1 
ITEM: TIMESTEP
100
ITEM: NUMBER OF ENTRIES
20
ITEM: BOX BOUNDS pp pp pp
-1.0000000000000000e+01 1.0000000000000000e+01
-1.0000000000000000e+01 1.0000000000000000e+01
-1.0000000000000000e+01 1.0000000000000000e+01
ITEM: ENTRIES index c_bondedatomid1 c_bondedatomid2 c_btype
1 4 5 1 
2 5 6 1 
3 1 2 1 
4 2 3 1 
5 23 24 1 
6 22 23 1 
7 7 8 1 
8 8 9 1 
9 19 20 1 
10 20 21 1 
11 13 14 1 
12 14 15 1 
13 25 26 1 
14 26 27 1 
15 17 18 1 
16 16 17 1 
17 10 11 1 
18 11 12 1 
19 28 29 1 
20 29 30 1 
ITEM: TIMESTEP
200
ITEM: NUMBER OF ENTRIES
20
ITEM: BOX BOUNDS pp pp pp
-1.0000000000000000e+01 1.0000000000000000e+01
-1.0000000000000000e+01 1.0000000000000000e+01
-1.0000000000000000e+01 1.0000000000000000e+01
ITEM: ENTRIES index c_bondedatomid1 c_bondedatomid2 c_btype
1 4 5 1 
2 5 6 1 
3 1 2 1 
4 2 3 1 
5 23 24 1 
6 22 23 1 
7 7 8 1 
8 8 9 1 
9 19 20 1 
10 20 21 1 
11 13 14 1 
12 14 15 1 
13 25 26 1 
14 26 27 1 
15 17 18 1 
16 16 17 1 
17 10 11 1 
18 11 12 1 
19 28 29 1 
20 29 30 1 
ITEM: TIMESTEP
300
ITEM: NUMBER OF ENTRIES
20
ITEM: BOX BOUNDS pp pp pp
-1.0000000000000000e+01 1.0000000000000000e+01
-1.0000000000000000e+01 1.0000000000000000e+01
-1.0000000000000000e+01 1.0000000000000000e+01
ITEM: ENTRIES index c_bondedatomid1 c_bondedatomid2 c_btype
1 4 5 1 
2 5 6 1 
3 1 2 1 
4 2 3 1 
5 23 24 1 
6 22 23 1 
7 7 8 1 
8 8 9 1 
9 19 20 1 
10 20 21 1 
11 13 14 1 
12 14 15 1 
13 25 26 1 
14 26 27 1 
15 17 18 1 
16 16 17 1 
17 10 11 1 
18 11 12 1 
19 28 29 1 
20 29 30 1 
ITEM: TIMESTEP
400
ITEM: NUMBER OF ENTRIES
20
ITEM: BOX BOUNDS pp pp pp
-1.0000000000000000e+01 1.0000000000000000e+01
-1.0000000000000000e+01 1.0000000000000000e+01
-1.0000000000000000e+01 1.0000000000000000e+01
ITEM: ENTRIES index c_bondedatomid1 c_bondedatomid2 c_btype
1 4 5 1 
2 5 6 1 
3 1 2 1 
4 2 3 1 
5 23 24 1 
6 22 23 1 
7 7 8 1 
8 8 9 1 
9 19 20 1 
10 20 21 1 
11 13 14 1 
12 14 15 1 
13 25 26 1 
14 26 27 1 
15 17 18 1 
16 16 17 1 
17 10 11 1 
18 11 12 1 
19 28 29 1 
20 29 30 1 
ITEM: TIMESTEP
500
ITEM: NUMBER OF ENTRIES
20
ITEM: BOX BOUNDS pp pp pp
-1.0000000000000000e+01 1.0000000000000000e+01
-1.0000000000000000e+01 1.0000000000000000e+01
-1.0000000000000000e+01 1.0000000000000000e+01
ITEM: ENTRIES index c_bondedatomid1 c_bondedatomid2 c_btype
1 4 5 1 
2 5 6 1 
3 1 2 1 
4 2 3 1 
5 23 24 1 
6 22 23 1 
7 7 8 1 
8 8 9 1 
9 19 20 1 
10 20 21 1 
11 13 14 1 
12 14 15 1 
13 25 26 1 
14 26 27 1 
15 17 18 1 
16 16 17 1 
17 10 11 1 
18 11 12 1 
19 28 29 1 
20 29 30 1 
ITEM: TIMESTEP
600
ITEM: NUMBER OF ENTRIES
20
ITEM: BOX BOUNDS pp pp pp
-1.0000000000000000e+01 1.0000000000000000e+01
-1.0000000000000000e+01 1.0000000000000000e+01
-1.0000000000000000e+01 1.0000000000000000e+01
ITEM: ENTRIES index c_bondedatomid1 c_bondedatomid2 c_btype
1 4 5 1 
2 5 6 1 
3 1 2 1 
4 2 3 1 
5 23 24 1 
6 22 23 1 
7 7 8 1 
8 8 9 1 
9 19 20 1 
10 20 21 1 
11 13 14 1 
12 14 15 1 
13 25 26 1 
14 26 27 1 
15 17 18 1 
16 16 17 1 
17 10 11 1 
18 11 12 1 
19 28 29 1 
20 29 30 1 
ITEM: TIMESTEP
700
ITEM: NUMBER OF ENTRIES
20
ITEM: BOX BOUNDS pp pp pp
-1.0000000000000000e+01 1.0000000000000000e+01
-1.0000000000000000e+01 1.0000000000000000e+01
-1.0000000000000000e+01 1.0000000000000000e+01
ITEM: ENTRIES index c_bondedatomid1 c_bondedatomid2 c_btype
1 4 5 1 
2 5 6 1 
3 1 2 1 
4 2 3 1 
5 23 24 1 
6 22 23 1 
7 7 8 1 
8 8 9 1 
9 19 20 1 
10 20 21 1 
11 13 14 1 
12 14 15 1 
13 25 26 1 
14 26 27 1 
15 17 18 1 
16 16 17 1 
17 10 11 1 
18 11 12 1 
19 28 29 1 
20 29 30 1 
ITEM: TIMESTEP
800
ITEM: NUMBER OF ENTRIES
20
ITEM: BOX BOUNDS pp pp pp
-1.0000000000000000e+01 1.0000000000000000e+01
-1.0000000000000000e+01 1.0000000000000000e+01
-1.0000000000000000e+01 1.0000000000000000e+01
ITEM: ENTRIES index c_bondedatomid1 c_bondedatomid2 c_btype
1 4 5 1 
2 5 6 1 
3 1 2 1 
4 2 3 1 
5 23 24 1 
6 22 23 1 
7 7 8 1 
8 8 9 1 
9 19 20 1 
10 20 21 1 
11 13 14 1 
12 14 15 1 
13 25 26 1 
14 26 27 1 
15 17 18 1 
16 16 17 1 
17 10 11 1 
18 11 12 1 
19 28 29 1 
20 29 30 1 
ITEM: TIMESTEP
900
ITEM: NUMBER OF ENTRIES
20
ITEM: BOX BOUNDS pp pp pp
-1.0000000000000000e+01 1.0000000000000000e+01
-1.0000000000000000e+01 1.0000000000000000e+01
-1.0000000000000000e+01 1.0000000000000000e+01
ITEM: ENTRIES index c_bondedatomid1 c_bondedatomid2 c_btype
1 4 5 1 
2 5 6 1 
3 1 2 1 
4 2 3 1 
5 23 24 1 
6 22 23 1 
7 7 8 1 
8 8 9 1 
9 19 20 1 
10 20 21 1 
11 13 14 1 
12 14 15 1 
13 25 26 1 
14 26 27 1 
15 17 18 1 
16 16 17 1 
17 10 11 1 
18 11 12 1 
19 28 29 1 
20 29 30 1 
ITEM: TIMESTEP
1000
ITEM: NUMBER OF ENTRIES
20
ITEM: BOX BOUNDS pp pp pp
-1.0000000000000000e+01 1.0000000000000000e+01
-1.0000000000000000e+01 1.0000000000000000e+01
-1.0000000000000000e+01 1.0000000000000000e+01
ITEM: ENTRIES index c_bondedatomid1 c_bondedatomid2 c_btype
1 4 5 1 
2 5 6 1 
3 1 2 1 
4 2 3 1 
5 23 24 1 
6 22 23 1 
7 7 8 1 
8 8 9 1 
9 19 20 1 
10 20 21 1 
11 13 14 1 
12 14 15 1 
13 25 26 1 
14 26 27 1 
15 17 18 1 
16 16 17 1 
17 10 11 1 
18 11 12 1 
19 28 29 1 
20 29 30 1 
ITEM: TIMESTEP
1100
ITEM: NUMBER OF ENTRIES
20
ITEM: BOX BOUNDS pp pp pp
-1.0000000000000000e+01 1.0000000000000000e+01
-1.0000000000000000e+01 1.0000000000000000e+01
-1.0000000000000000e+01 1.0000000000000000e+01
ITEM: ENTRIES index c_bondedatomid1 c_bondedatomid2 c_btype
1 5 6 1 
2 1 2 1 
3 2 3 1 
4 7 8 1 
5 8 9 1 
6 4 5 1 
7 20 21 1 
8 19 20 1 
9 23 24 1 
10 22 23 1 
11 13 14 1 
12 10 11 1 
13 25 26 1 
14 26 27 1 
15 17 18 1 
16 16 17 1 
17 14 15 1 
18 11 12 1 
19 29 30 1 
20 28 29 1 
ITEM: TIMESTEP
1200
ITEM: NUMBER OF ENTRIES
20
ITEM: BOX BOUNDS pp pp pp
-1.0000000000000000e+01 1.0000000000000000e+01
-1.0000000000000000e+01 1.0000000000000000e+01
-1.0000000000000000e+01 1.0000000000000000e+01
ITEM: ENTRIES index c_bondedatomid1 c_bondedatomid2 c_btype
1 5 6 1 
2 1 2 1 
3 2 3 1 
4 7 8 1 
5 8 9 1 
6 4 5 1 
7 20 21 1 
8 19 20 1 
9 23 24 1 
10 22 23 1 
11 13 14 1 
12 10 11 1 
13 25 26 1 
14 26 27 1 
15 17 18 1 
16 16 17 1 
17 14 15 1 
18 11 12 1 
19 29 30 1 
20 28 29 1 
ITEM: TIMESTEP
1300
ITEM: NUMBER OF ENTRIES
20
ITEM: BOX BOUNDS pp pp pp
-1.0000000000000000e+01 1.0000000000000000e+01
-1.0000000000000000e+01 1.0000000000000000e+01
-1.0000000000000000e+01 1.0000000000000000e+01
ITEM: ENTRIES index c_bondedatomid1 c_bondedatomid2 c_btype
1 5 6 1 
2 1 2 1 
3 2 3 1 
4 7 8 1 
5 8 9 1 
6 4 5 1 
7 20 21 1 
8 19 20 1 
9 23 24 1 
10 22 23 1 
11 13 14 1 
12 10 11 1 
13 25 26 1 
14 26 27 1 
15 17 18 1 
16 16 17 1 
17 14 15 1 
18 11 12 1 
19 29 30 1 
20 28 29 1 
ITEM: TIMESTEP
1400
ITEM: NUMBER OF ENTRIES
20
ITEM: BOX BOUNDS pp pp pp
-1.0000000000000000e+01 1.0000000000000000e+01
-1.0000000000000000e+01 1.0000000000000000e+01
-1.0000000000000000e+01 1.0000000000000000e+01
ITEM: ENTRIES index c_bondedatomid1 c_bondedatomid2 c_btype
1 5 6 1 
2 1 2 1 
3 2 3 1 
4 7 8 1 
5 8 9 1 
6 4 5 1 
7 20 21 1 
8 19 20 1 
9 23 24 1 
10 22 23 1 
11 13 14 1 
12 10 11 1 
13 25 26 1 
14 26 27 1 
15 17 18 1 
16 16 17 1 
17 14 15 1 
18 11 12 1 
19 29 30 1 
20 28 29 1 
ITEM: TIMESTEP
1500
ITEM: NUMBER OF ENTRIES
20
ITEM: BOX BOUNDS pp pp pp
-1.0000000000000000e+01 1.0000000000000000e+01
-1.0000000000000000e+01 1.0000000000000000e+01
-1.0000000000000000e+01 1.0000000000000000e+01
ITEM: ENTRIES index c_bondedatomid1 c_bondedatomid2 c_btype
1 5 6 1 
2 1 2 1 
3 2 3 1 
4 7 8 1 
5 8 9 1 
6 4 5 1 
7 20 21 1 
8 19 20 1 
9 23 24 1 
10 22 23 1 
11 13 14 1 
12 10 11 1 
13 25 26 1 
14 26 27 1 
15 17 18 1 
16 16 17 1 
17 14 15 1 
18 11 12 1 
19 29 30 1 
20 28 29 1 
ITEM: TIMESTEP
1600
ITEM: NUMBER OF ENTRIES
20
ITEM: BOX BOUNDS pp pp pp
-1.0000000000000000e+01 1.0000000000000000e+01
-1.0000000000000000e+01 1.0000000000000000e+01
-1.0000000000000000e+01 1.0000000000000000e+01
ITEM: ENTRIES index c_bondedatomid1 c_bondedatomid2 c_btype
1 5 6 1 
2 1 2 1 
3 2 3 1 
4 7 8 1 
5 8 9 1 
6 4 5 1 
7 20 21 1 
8 19 20 1 
9 23 24 1 
10 22 23 1 
11 13 14 1 
12 10 11 1 
13 25 26 1 
14 26 27 1 
15 17 18 1 
16 16 17 1 
17 14 15 1 
18 11 12 1 
19 29 30 1 
20 28 29 1 
ITEM: TIMESTEP
1700
ITEM: NUMBER OF ENTRIES
20
ITEM: BOX BOUNDS pp pp pp
-1.0000000000000000e+01 1.0000000000000000e+01
-1.0000000000000000e+01 1.0000000000000000e+01
-1.0000000000000000e+01 1.0000000000000000e+01
ITEM: ENTRIES index c_bondedatomid1 c_bondedatomid2 c_btype
1 5 6 1 
2 1 2 1 
3 2 3 1 
4 7 8 1 
5 8 9 1 
6 4 5 1 
7 20 21 1 
8 19 20 1 
9 23 24 1 
10 22 23 1 
11 13 14 1 
12 10 11 1 
13 25 26 1 
14 26 27 1 
15 17 18 1 
16 16 17 1 
17 14 15 1 
18 11 12 1 
19 29 30 1 
20 28 29 1 
ITEM: TIMESTEP
1800
ITEM: NUMBER OF ENTRIES
20
ITEM: BOX BOUNDS pp pp pp
-1.0000000000000000e+01 1.0000000000000000e+01
-1.0000000000000000e+01 1.0000000000000000e+01
-1.0000000000000000e+01 1.0000000000000000e+01
ITEM: ENTRIES index c_bondedatomid1 c_bondedatomid2 c_btype
1 5 6 1 
2 1 2 1 
3 2 3 1 
4 7 8 1 
5 8 9 1 
6 4 5 1 
7 20 21 1 
8 19 20 1 
9 23 24 1 
10 22 23 1 
11 13 14 1 
12 10 11 1 
13 25 26 1 
14 26 27 1 
15 17 18 1 
16 16 17 1 
17 14 15 1 
18 11 12 1 
19 29 30 1 
20 28 29 1 
ITEM: TIMESTEP
1900
ITEM: NUMBER OF ENTRIES
20
ITEM: BOX BOUNDS pp pp pp
-1.0000000000000000e+01 1.0000000000000000e+01
-1.0000000000000000e+01 1.0000000000000000e+01
-1.0000000000000000e+01 1.0000000000000000e+01
ITEM: ENTRIES index c_bondedatomid1 c_bondedatomid2 c_btype
1 5 6 1 
2 1 2 1 
3 2 3 1 
4 7 8 1 
5 8 9 1 
6 4 5 1 
7 20 21 1 
8 19 20 1 
9 23 24 1 
10 22 23 1 
11 13 14 1 
12 10 11 1 
13 25 26 1 
14 26 27 1 
15 17 18 1 
16 16 17 1 
17 14 15 1 
18 11 12 1 
19 29 30 1 
20 28 29 1 
ITEM: TIMESTEP
2000
ITEM: NUMBER OF ENTRIES
20
ITEM: BOX BOUNDS pp pp pp
-1.0000000000000000e+01 1.0000000000000000e+01
-1.0000000000000000e+01 1.0000000000000000e+01
-1.0000000000000000e+01 1.0000000000000000e+01
ITEM: ENTRIES index c_bondedatomid1 c_bondedatomid2 c_btype
1 5 6 1 
2 1 2 1 
3 2 3 1 
4 7 8 1 
5 8 9 1 
6 4 5 1 
7 20 21 1 
8 19 20 1 
9 23 24 1 
10 22 23 1 
11 13 14 1 
12 10 11 1 
13 25 26 1 
14 26 27 1 
15 17 18 1 
16 16 17 1 
17 14 15 1 
18 11 12 1 
19 29 30 1 
20 28 29 1 
ITEM: TIMESTEP
2100
ITEM: NUMBER OF ENTRIES
20
ITEM: BOX BOUNDS pp pp pp
-1.0000000000000000e+01 1.0000000000000000e+01
-1.0000000000000000e+01 1.0000000000000000e+01
-1.0000000000000000e+01 1.0000000000000000e+01
ITEM: ENTRIES index c_bondedatomid1 c_bondedatomid2 c_btype
1 5 6 1 
2 1 2 1 
3 2 3 1 
4 7 8 1 
5 8 9 1 
6 4 5 1 
7 20 21 1 
8 19 20 1 
9 23 24 1 
10 22 23 1 
11 13 14 1 
12 10 11 1 
13 25 26 1 
14 26 27 1 
15 17 18 1 
16 16 17 1 
17 14 15 1 
18 11 12 1 
19 29 30 1 
20 28 29 1 
ITEM: TIMESTEP
2200
ITEM: NUMBER OF ENTRIES
20
ITEM: BOX BOUNDS pp pp pp
-1.0000000000000000e+01 1.0000000000000000e+01
-1.0000000000000000e+01 1.0000000000000000e+01
-1.0000000000000000e+01 1.0000000000000000e+01
ITEM: ENTRIES index c_bondedatomid1 c_bondedatomid2 c_btype
1 4 5 1 
2 5 6 1 
3 2 3 1 
4 1 2 1 
5 7 8 1 
6 8 9 1 
7 20 21 1 
8 19 20 1 
9 23 24 1 
10 22 23 1 
11 25 26 1 
12 26 27 1 
13 17 18 1 
14 16 17 1 
15 13 14 1 
16 14 15 1 
17 10 11 1 
18 11 12 1 
19 29 30 1 
20 28 29 1 
ITEM: TIMESTEP
2300
ITEM: NUMBER OF ENTRIES
20
ITEM: BOX BOUNDS pp pp pp
-1.0000000000000000e+01 1.0000000000000000e+01
-1.0000000000000000e+01 1.0000000000000000e+01
-1.0000000000000000e+01 1.0000000000000000e+01
ITEM: ENTRIES index c_bondedatomid1 c_bondedatomid2 c_btype
1 4 5 1 
2 5 6 1 
3 2 3 1 
4 1 2 1 
5 7 8 1 
6 8 9 1 
7 20 21 1 
8 19 20 1 
9 23 24 1 
10 22 23 1 
11 25 26 1 
12 26 27 1 
13 17 18 1 
14 16 17 1 
15 13 14 1 
16 14 15 1 
17 10 11 1 
18 11 12 1 
19 29 30 1 
20 28 29 1 
ITEM: TIMESTEP
2400
ITEM: NUMBER OF ENTRIES
20
ITEM: BOX BOUNDS pp pp pp
-1.0000000000000000e+01 1.0000000000000000e+01
-1.0000000000000000e+01 1.0000000000000000e+01
-1.0000000000000000e+01 1.0000000000000000e+01
ITEM: ENTRIES index c_bondedatomid1 c_bondedatomid2 c_btype
1 4 5 1 
2 5 6 1 
3 2 3 1 
4 1 2 1 
5 7 8 1 
6 8 9 1 
7 20 21 1 
8 19 20 1 
9 23 24 1 
10 22 23 1 
11 25 26 1 
12 26 27 1 
13 17 18 1 
14 16 17 1 
15 13 14 1 
16 14 15 1 
17 10 11 1 
18 11 12 1 
19 29 30 1 
20 28 29 1 
ITEM: TIMESTEP
2500
ITEM: NUMBER OF ENTRIES
20
ITEM: BOX BOUNDS pp pp pp
-1.0000000000000000e+01 1.0000000000000000e+01
-1.0000000000000000e+01 1.0000000000000000e+01
-1.0000000000000000e+01 1.0000000000000000e+01
ITEM: ENTRIES index c_bondedatomid1 c_bondedatomid2 c_btype
1 4 5 1 
2 5 6 1 
3 2 3 1 
4 1 2 1 
5 7 8 1 
6 8 9 1 
7 20 21 1 
8 19 20 1 
9 23 24 1 
10 22 23 1 
11 25 26 1 
12 26 27 1 
13 17 18 1 
14 16 17 1 
15 13 14 1 
16 14 15 1 
17 10 11 1 
18 11 12 1 
19 29 30 1 
20 28 29 1 
ITEM: TIMESTEP
2600
ITEM: NUMBER OF ENTRIES
20
ITEM: BOX BOUNDS pp pp pp
-1.0000000000000000e+01 1.0000000000000000e+01
-1.0000000000000000e+01 1.0000000000000000e+01
-1.0000000000000000e+01 1.0000000000000000e+01
ITEM: ENTRIES index c_bondedatomid1 c_bondedatomid2 c_btype
1 4 5 1 
2 5 6 1 
3 2 3 1 
4 1 2 1 
5 7 8 1 
6 8 9 1 
7 20 21 1 
8 19 20 1 
9 23 24 1 
10 22 23 1 
11 25 26 1 
12 26 27 1 
13 17 18 1 
14 16 17 1 
15 13 14 1 
16 14 15 1 
17 10 11 1 
18 11 12 1 
19 29 30 1 
20 28 29 1 
ITEM: TIMESTEP
2700
ITEM: NUMBER OF ENTRIES
20
ITEM: BOX BOUNDS pp pp pp
-1.0000000000000000e+01 1.0000000000000000e+01
-1.0000000000000000e+01 1.0000000000000000e+01
-1.0000000000000000e+01 1.0000000000000000e+01
ITEM: ENTRIES index c_bondedatomid1 c_bondedatomid2 c_btype
1 4 5 1 
2 5 6 1 
3 2 3 1 
4 1 2 1 
5 7 8 1 
6 8 9 1 
7 20 21 1 
8 19 20 1 
9 23 24 1 
10 22 23 1 
11 25 26 1 
12 26 27 1 
13 17 18 1 
14 16 17 1 
15 13 14 1 
16 14 15 1 
17 10 11 1 
18 11 12 1 
19 29 30 1 
20 28 29 1 
ITEM: TIMESTEP
2800
ITEM: NUMBER OF ENTRIES
20
ITEM: BOX BOUNDS pp pp pp
-1.0000000000000000e+01 1.0000000000000000e+01
-1.0000000000000000e+01 1.0000000000000000e+01
-1.0000000000000000e+01 1.0000000000000000e+01
ITEM: ENTRIES index c_bondedatomid1 c_bondedatomid2 c_btype
1 4 5 1 
2 5 6 1 
3 2 3 1 
4 1 2 1 
5 7 8 1 
6 8 9 1 
7 20 21 1 
8 19 20 1 
9 23 24 1 
10 22 23 1 
11 25 26 1 
12 26 27 1 
13 17 18 1 
14 16 17 1 
15 13 14 1 
16 14 15 1 
17 10 11 1 
18 11 12 1 
19 29 30 1 
20 28 29 1 
ITEM: TIMESTEP
2900
ITEM: NUMBER OF ENTRIES
20
ITEM: BOX BOUNDS pp pp pp
-1.0000000000000000e+01 1.0000000000000000e+01
-1.0000000000000000e+01 1.0000000000000000e+01
-1.0000000000000000e+01 1.0000000000000000e+01
ITEM: ENTRIES index c_bondedatomid1 c_bondedatomid2 c_btype
1 4 5 1 
2 5 6 1 
3 2 3 1 
4 1 2 1 
5 7 8 1 
6 8 9 1 
7 20 21 1 
8 19 20 1 
9 23 24 1 
10 22 23 1 
11 25 26 1 
12 26 27 1 
13 17 18 1 
14 16 17 1 
15 13 14 1 
16 14 15 1 
17 10 11 1 
18 11 12 1 
19 29 30 1 
20 28 29 1 
ITEM: TIMESTEP
3000
ITEM: NUMBER OF ENTRIES
20
ITEM: BOX BOUNDS pp pp pp
-1.0000000000000000e+01 1.0000000000000000e+01
-1.0000000000000000e+01 1.0000000000000000e+01
-1.0000000000000000e+01 1.0000000000000000e+01
ITEM: ENTRIES index c_bondedatomid1 c_bondedatomid2 c_btype
1 4 5 1 
2 5 6 1 
3 2 3 1 
4 1 2 1 
5 7 8 1 
6 8 9 1 
7 20 21 1 
8 19 20 1 
9 23 24 1 
10 22 23 1 
11 25 26 1 
12 26 27 1 
13 17 18 1 
14 16 17 1 
15 13 14 1 
16 14 15 1 
17 10 11 1 
18 11 12 1 
19 29 30 1 
20 28 29 1 
ITEM: TIMESTEP
3100
ITEM: NUMBER OF ENTRIES
20
ITEM: BOX BOUNDS pp pp pp
-1.0000000000000000e+01 1.0000000000000000e+01
-1.0000000000000000e+01 1.0000000000000000e+01
-1.0000000000000000e+01 1.0000000000000000e+01
ITEM: ENTRIES index c_bondedatomid1 c_bondedatomid2 c_btype
1 4 5 1 
2 5 6 1 
3 2 3 1 
4 1 2 1 
5 7 8 1 
6 8 9 1 
7 20 21 1 
8 19 20 1 
9 23 24 1 
10 22 23 1 
11 25 26 1 
12 26 27 1 
13 17 18 1 
14 16 17 1 
15 13 14 1 
16 14 15 1 
17 10 11 1 
18 11 12 1 
19 29 30 1 
20 28 29 1 
ITEM: TIMESTEP
3200
ITEM: NUMBER OF ENTRIES
20
ITEM: BOX BOUNDS pp pp pp
-1.0000000000000000e+01 1.0000000000000000e+01
-1.0000000000000000e+01 1.0000000000000000e+01
-1.0000000000000000e+01 1.0000000000000000e+01
ITEM: ENTRIES index c_bondedatomid1 c_bondedatomid2 c_btype
1 4 5 1 
2 2 3 1 
3 1 2 1 
4 7 8 1 
5 5 6 1 
6 20 21 1 
7 19 20 1 
8 23 24 1 
9 22 23 1 
10 8 9 1 
11 25 26 1 
12 26 27 1 
13 14 15 1 
14 13 14 1 
15 10 11 1 
16 11 12 1 
17 17 18 1 
18 16 17 1 
19 29 30 1 
20 28 29 1 
ITEM: TIMESTEP
3300
ITEM: NUMBER OF ENTRIES
20
ITEM: BOX BOUNDS pp pp pp
-1.0000000000000000e+01 1.0000000000000000e+01
-1.0000000000000000e+01 1.0000000000000000e+01
-1.0000000000000000e+01 1.0000000000000000e+01
ITEM: ENTRIES index c_bondedatomid1 c_bondedatomid2 c_btype
1 4 5 1 
2 2 3 1 
3 1 2 1 
4 7 8 1 
5 5 6 1 
6 20 21 1 
7 19 20 1 
8 23 24 1 
9 22 23 1 
10 8 9 1 
11 25 26 1 
12 26 27 1 
13 14 15 1 
14 13 14 1 
15 10 11 1 
16 11 12 1 
17 17 18 1 
18 16 17 1 
19 29 30 1 
20 28 29 1 
ITEM: TIMESTEP
3400
ITEM: NUMBER OF ENTRIES
20
ITEM: BOX BOUNDS pp pp pp
-1.0000000000000000e+01 1.0000000000000000e+01
-1.0000000000000000e+01 1.0000000000000000e+01
-1.0000000000000000e+01 1.0000000000000000e+01
ITEM: ENTRIES index c_bondedatomid1 c_bondedatomid2 c_btype
1 4 5 1 
2 2 3 1 
3 1 2 1 
4 7 8 1 
5 5 6 1 
6 20 21 1 
7 19 20 1 
8 23 24 1 
9 22 23 1 
10 8 9 1 
11 25 26 1 
12 26 27 1 
13 14 15 1 
14 13 14 1 
15 10 11 1 
16 11 12 1 
17 17 18 1 
18 16 17 1 
19 29 30 1 
20 28 29 1 
ITEM: TIMESTEP
3500
ITEM: NUMBER OF ENTRIES
20
ITEM: BOX BOUNDS pp pp pp
-1.0000000000000000e+01 1.0000000000000000e+01
-1.0000000000000000e+01 1.0000000000000000e+01
-1.0000000000000000e+01 1.0000000000000000e+01
ITEM: ENTRIES index c_bondedatomid1 c_bondedatomid2 c_btype
1 4 5 1 
2 2 3 1 
3 1 2 1 
4 7 8 1 
5 5 6 1 
6 20 21 1 
7 19 20 1 
8 23 24 1 
9 22 23 1 
10 8 9 1 
11 25 26 1 
12 26 27 1 
13 14 15 1 
14 13 14 1 
15 10 11 1 
16 11 12 1 
17 17 18 1 
18 16 17 1 
19 29 30 1 
20 28 29 1 
ITEM: TIMESTEP
3600
ITEM: NUMBER OF ENTRIES
20
ITEM: BOX BOUNDS pp pp pp
-1.0000000000000000e+01 1.0000000000000000e+01
-1.0000000000000000e+01 1.0000000000000000e+01
-1.0000000000000000e+01 1.0000000000000000e+01
ITEM: ENTRIES index c_bondedatomid1 c_bondedatomid2 c_btype
1 4 5 1 
2 2 3 1 
3 1 2 1 
4 7 8 1 
5 5 6 1 
6 20 21 1 
7 19 20 1 
8 23 24 1 
9 22 23 1 
10 8 9 1 
11 25 26 1 
12 26 27 1 
13 14 15 1 
14 13 14 1 
15 10 11 1 
16 11 12 1 
17 17 18 1 
18 16 17 1 
19 29 30 1 
20 28 29 1 
ITEM: TIMESTEP
3700
ITEM: NUMBER OF ENTRIES
20
ITEM: BOX BOUNDS pp pp pp
-1.0000000000000000e+01 1.0000000000000000e+01
-1.0000000000000000e+01 1.0000000000000000e+01
-1.0000000000000000e+01 1.0000000000000000e+01
ITEM: ENTRIES index c_bondedatomid1 c_bondedatomid2 c_btype
1 4 5 1 
2 2 3 1 
3 1 2 1 
4 7 8 1 
5 5 6 1 
6 20 21 1 
7 19 20 1 
8 23 24 1 
9 22 23 1 
10 8 9 1 
11 25 26 1 
12 26 27 1 
13 14 15 1 
14 13 14 1 
15 10 11 1 
16 11 12 1 
17 17 18 1 
18 16 17 1 
19 29 30 1 
20 28 29 1 
ITEM: TIMESTEP
3800
ITEM: NUMBER OF ENTRIES
20
ITEM: BOX BOUNDS pp pp pp
-1.0000000000000000e+01 1.0000000000000000e+01
-1.0000000000000000e+01 1.0000000000000000e+01
-1.0000000000000000e+01 1.0000000000000000e+01
ITEM: ENTRIES index c_bondedatomid1 c_bondedatomid2 c_btype
1 4 5 1 
2 2 3 1 
3 1 2 1 
4 7 8 1 
5 5 6 1 
6 20 21 1 
7 19 20 1 
8 23 24 1 
9 22 23 1 
10 8 9 1 
11 25 26 1 
12 26 27 1 
13 14 15 1 
14 13 14 1 
15 10 11 1 
16 11 12 1 
17 17 18 1 
18 16 17 1 
19 29 30 1 
20 28 29 1 
ITEM: TIMESTEP
3900
ITEM: NUMBER OF ENTRIES
20
ITEM: BOX BOUNDS pp pp pp
-1.0000000000000000e+01 1.0000000000000000e+01
-1.0000000000000000e+01 1.0000000000000000e+01
-1.0000000000000000e+01 1.0000000000000000e+01
ITEM: ENTRIES index c_bondedatomid1 c_bondedatomid2 c_btype
1 4 5 1 
2 2 3 1 
3 1 2 1 
4 7 8 1 
5 5 6 1 
6 20 21 1 
7 19 20 1 
8 23 24 1 
9 22 23 1 
10 8 9 1 
11 25 26 1 
12 26 27 1 
13 14 15 1 
14 13 14 1 
15 10 11 1 
16 11 12 1 
17 17 18 1 
18 16 17 1 
19 29 30 1 
20 28 29 1 
ITEM: TIMESTEP
4000
ITEM: NUMBER OF ENTRIES
20
ITEM: BOX BOUNDS pp pp pp
-1.0000000000000000e+01 1.0000000000000000e+01
-1.0000000000000000e+01 1.0000000000000000e+01
-1.0000000000000000e+01 1.0000000000000000e+01
ITEM: ENTRIES index c_bondedatomid1 c_bondedatomid2 c_btype
1 4 5 1 
2 2 3 1 
3 1 2 1 
4 7 8 1 
5 5 6 1 
6 20 21 1 
7 19 20 1 
8 23 24 1 
9 22 23 1 
10 8 9 1 
11 25 26 1 
12 26 27 1 
13 14 15 1 
14 13 14 1 
15 10 11 1 
16 11 12 1 
17 17 18 1 
18 16 17 1 
19 29 30 1 
20 28 29 1 
ITEM: TIMESTEP
4100
ITEM: NUMBER OF ENTRIES
20
ITEM: BOX BOUNDS pp pp pp
-1.0000000000000000e+01 1.0000000000000000e+01
-1.0000000000000000e+01 1.0000000000000000e+01
-1.0000000000000000e+01 1.0000000000000000e+01
ITEM: ENTRIES index c_bondedatomid1 c_bondedatomid2 c_btype
1 4 5 1 
2 5 6 1 
3 2 3 1 
4 1 2 1 
5 8 9 1 
6 7 8 1 
7 19 20 1 
8 23 24 1 
9 22 23 1 
10 20 21 1 
11 25 26 1 
12 26 27 1 
13 14 15 1 
14 13 14 1 
15 11 12 1 
16 10 11 1 
17 17 18 1 
18 16 17 1 
19 29 30 1 
20 28 29 1 
ITEM: TIMESTEP
4200
ITEM: NUMBER OF ENTRIES
20
ITEM: BOX BOUNDS pp pp pp
-1.0000000000000000e+01 1.0000000000000000e+01
-1.0000000000000000e+01 1.0000000000000000e+01
-1.0000000000000000e+01 1.0000000000000000e+01
ITEM: ENTRIES index c_bondedatomid1 c_bondedatomid2 c_btype
1 4 5 1 
2 5 6 1 
3 2 3 1 
4 1 2 1 
5 8 9 1 
6 7 8 1 
7 19 20 1 
8 23 24 1 
9 22 23 1 
10 20 21 1 
11 25 26 1 
12 26 27 1 
13 14 15 1 
14 13 14 1 
15 11 12 1 
16 10 11 1 
17 17 18 1 
18 16 17 1 
19 29 30 1 
20 28 29 1 
ITEM: TIMESTEP
4300
ITEM: NUMBER OF ENTRIES
20
ITEM: BOX BOUNDS pp pp pp
-1.0000000000000000e+01 1.0000000000000000e+01
-1.0000000000000000e+01 1.0000000000000000e+01
-1.0000000000000000e+01 1.0000000000000000e+01
ITEM: ENTRIES index c_bondedatomid1 c_bondedatomid2 c_btype
1 4 5 1 
2 5 6 1 
3 2 3 1 
4 1 2 1 
5 8 9 1 
6 7 8 1 
7 19 20 1 
8 23 24 1 
9 22 23 1 
10 20 21 1 
11 25 26 1 
12 26 27 1 
13 14 15 1 
14 13 14 1 
15 11 12 1 
16 10 11 1 
17 17 18 1 
18 16 17 1 
19 29 30 1 
20 28 29 1 
ITEM: TIMESTEP
4400
ITEM: NUMBER OF ENTRIES
20
ITEM: BOX BOUNDS pp pp pp
-1.0000000000000000e+01 1.0000000000000000e+01
-1.0000000000000000e+01 1.0000000000000000e+01
-1.0000000000000000e+01 1.0000000000000000e+01
ITEM: ENTRIES index c_bondedatomid1 c_bondedatomid2 c_btype
1 4 5 1 
2 5 6 1 
3 2 3 1 
4 1 2 1 
5 8 9 1 
6 7 8 1 
7 19 20 1 
8 23 24 1 
9 22 23 1 
10 20 21 1 
11 25 26 1 
12 26 27 1 
13 14 15 1 
14 13 14 1 
15 11 12 1 
16 10 11 1 
17 17 18 1 
18 16 17 1 
19 29 30 1 
20 28 29 1 
ITEM: TIMESTEP
4500
ITEM: NUMBER OF ENTRIES
20
ITEM: BOX BOUNDS pp pp pp
-1.0000000000000000e+01 1.0000000000000000e+01
-1.0000000000000000e+01 1.0000000000000000e+01
-1.0000000000000000e+01 1.0000000000000000e+01
ITEM: ENTRIES index c_bondedatomid1 c_bondedatomid2 c_btype
1 4 5 1 
2 5 6 1 
3 2 3 1 
4 1 2 1 
5 8 9 1 
6 7 8 1 
7 19 20 1 
8 23 24 1 
9 22 23 1 
10 20 21 1 
11 25 26 1 
12 26 27 1 
13 14 15 1 
14 13 14 1 
15 11 12 1 
16 10 11 1 
17 17 18 1 
18 16 17 1 
19 29 30 1 
20 28 29 1 
ITEM: TIMESTEP
4600
ITEM: NUMBER OF ENTRIES
20
ITEM: BOX BOUNDS pp pp pp
-1.0000000000000000e+01 1.0000000000000000e+01
-1.0000000000000000e+01 1.0000000000000000e+01
-1.0000000000000000e+01 1.0000000000000000e+01
ITEM: ENTRIES index c_bondedatomid1 c_bondedatomid2 c_btype
1 4 5 1 
2 5 6 1 
3 2 3 1 
4 1 2 1 
5 8 9 1 
6 7 8 1 
7 19 20 1 
8 23 24 1 
9 22 23 1 
10 20 21 1 
11 25 26 1 
12 26 27 1 
13 14 15 1 
14 13 14 1 
15 11 12 1 
16 10 11 1 
17 17 18 1 
18 16 17 1 
19 29 30 1 
20 28 29 1 
ITEM: TIMESTEP
4700
ITEM: NUMBER OF ENTRIES
20
ITEM: BOX BOUNDS pp pp pp
-1.0000000000000000e+01 1.0000000000000000e+01
-1.0000000000000000e+01 1.0000000000000000e+01
-1.0000000000000000e+01 1.0000000000000000e+01
ITEM: ENTRIES index c_bondedatomid1 c_bondedatomid2 c_btype
1 4 5 1 
2 5 6 1 
3 2 3 1 
4 1 2 1 
5 8 9 1 
6 7 8 1 
7 19 20 1 
8 23 24 1 
9 22 23 1 
10 20 21 1 
11 25 26 1 
12 26 27 1 
13 14 15 1 
14 13 14 1 
15 11 12 1 
16 10 11 1 
17 17 18 1 
18 16 17 1 
19 29 30 1 
20 28 29 1 
ITEM: TIMESTEP
4800
ITEM: NUMBER OF ENTRIES
20
ITEM: BOX BOUNDS pp pp pp
-1.0000000000000000e+01 1.0000000000000000e+01
-1.0000000000000000e+01 1.0000000000000000e+01
-1.0000000000000000e+01 1.0000000000000000e+01
ITEM: ENTRIES index c_bondedatomid1 c_bondedatomid2 c_btype
1 4 5 1 
2 5 6 1 
3 2 3 1 
4 1 2 1 
5 8 9 1 
6 7 8 1 
7 19 20 1 
8 23 24 1 
9 22 23 1 
10 20 21 1 
11 25 26 1 
12 26 27 1 
13 14 15 1 
14 13 14 1 
15 11 12 1 
16 10 11 1 
17 17 18 1 
18 16 17 1 
19 29 30 1 
20 28 29 1 
ITEM: TIMESTEP
4900
ITEM: NUMBER OF ENTRIES
20
ITEM: BOX BOUNDS pp pp pp
-1.0000000000000000e+01 1.0000000000000000e+01
-1.0000000000000000e+01 1.0000000000000000e+01
-1.0000000000000000e+01 1.0000000000000000e+01
ITEM: ENTRIES index c_bondedatomid1 c_bondedatomid2 c_btype
1 4 5 1 
2 5 6 1 
3 2 3 1 
4 1 2 1 
5 8 9 1 
6 7 8 1 
7 19 20 1 
8 23 24 1 
9 22 23 1 
10 20 21 1 
11 25 26 1 
12 26 27 1 
13 14 15 1 
14 13 14 1 
15 11 12 1 
16 10 11 1 
17 17 18 1 
18 16 17 1 
19 29 30 1 
20 28 29 1 
ITEM: TIMESTEP
5000
ITEM: NUMBER OF ENTRIES
20
ITEM: BOX BOUNDS pp pp pp
-1.0000000000000000e+01 1.0000000000000000e+01
-1.0000000000000000e+01 1.0000000000000000e+01
-1.0000000000000000e+01 1.0000000000000000e+01
ITEM: ENTRIES index c_bondedatomid1 c_bondedatomid2 c_btype
1 4 5 1 
2 5 6 1 
3 2 3 1 
4 1 2 1 
5 8 9 1 
6 7 8 1 
7 19 20 1 
8 23 24 1 
9 22 23 1 
10 20 21 1 
11 25 26 1 
12 26 27 1 
13 14 15 1 
14 13 14 1 
15 11 12 1 
16 10 11 1 
17 17 18 1 
18 16 17 1 
19 29 30 1 
20 28 29 1 
ITEM: TIMESTEP
5100
ITEM: NUMBER OF ENTRIES
20
ITEM: BOX BOUNDS pp pp pp
-1.0000000000000000e+01 1.0000000000000000e+01
-1.0000000000000000e+01 1.0000000000000000e+01
-1.0000000000000000e+01 1.0000000000000000e+01
ITEM: ENTRIES index c_bondedatomid1 c_bondedatomid2 c_btype
1 4 5 1 
2 5 6 1 
3 2 3 1 
4 1 2 1 
5 8 9 1 
6 7 8 1 
7 19 20 1 
8 23 24 1 
9 22 23 1 
10 20 21 1 
11 25 26 1 
12 26 27 1 
13 14 15 1 
14 13 14 1 
15 11 12 1 
16 10 11 1 
17 17 18 1 
18 16 17 1 
19 29 30 1 
20 28 29 1 
ITEM: TIMESTEP
5200
ITEM: NUMBER OF ENTRIES
20
ITEM: BOX BOUNDS pp pp pp
-1.0000000000000000e+01 1.0000000000000000e+01
-1.0000000000000000e+01 1.0000000000000000e+01
-1.0000000000000000e+01 1.0000000000000000e+01
ITEM: ENTRIES index c_bondedatomid1 c_bondedatomid2 c_btype
1 5 6 1 
2 2 3 1 
3 4 5 1 
4 1 2 1 
5 20 21 1 
6 22 23 1 
7 23 24 1 
8 8 9 1 
9 7 8 1 
10 19 20 1 
11 25 26 1 
12 26 27 1 
13 13 14 1 
14 11 12 1 
15 10 11 1 
16 17 18 1 
17 16 17 1 
18 14 15 1 
19 29 30 1 
20 28 29 1 
ITEM: TIMESTEP
5300
ITEM: NUMBER OF ENTRIES
20
ITEM: BOX BOUNDS pp pp pp
-1.0000000000000000e+01 1.0000000000000000e+01
-1.0000000000000000e+01 1.0000000000000000e+01
-1.0000000000000000e+01 1.0000000000000000e+01
ITEM: ENTRIES index c_bondedatomid1 c_bondedatomid2 c_btype
1 5 6 1 
2 2 3 1 
3 4 5 1 
4 1 2 1 
5 20 21 1 
6 22 23 1 
7 23 24 1 
8 8 9 1 
9 7 8 1 
10 19 20 1 
11 25 26 1 
12 26 27 1 
13 13 14 1 
14 11 12 1 
15 10 11 1 
16 17 18 1 
17 16 17 1 
18 14 15 1 
19 29 30 1 
20 28 29 1 
ITEM: TIMESTEP
5400
ITEM: NUMBER OF ENTRIES
20
ITEM: BOX BOUNDS pp pp pp
-1.0000000000000000e+01 1.0000000000000000e+01
-1.0000000000000000e+01 1.0000000000000000e+01
-1.0000000000000000e+01 1.0000000000000000e+01
ITEM: ENTRIES index c_bondedatomid1 c_bondedatomid2 c_btype
1 5 6 1 
2 2 3 1 
3 4 5 1 
4 1 2 1 
5 20 21 1 
6 22 23 1 
7 23 24 1 
8 8 9 1 
9 7 8 1 
10 19 20 1 
11 25 26 1 
12 26 27 1 
13 13 14 1 
14 11 12 1 
15 10 11 1 
16 17 18 1 
17 16 17 1 
18 14 15 1 
19 29 30 1 
20 28 29 1 
ITEM: TIMESTEP
5500
ITEM: NUMBER OF ENTRIES
20
ITEM: BOX BOUNDS pp pp pp
-1.0000000000000000e+01 1.0000000000000000e+01
-1.0000000000000000e+01 1.0000000000000000e+01
-1.0000000000000000e+01 1.0000000000000000e+01
ITEM: ENTRIES index c_bondedatomid1 c_bondedatomid2 c_btype
1 5 6 1 
2 2 3 1 
3 4 5 1 
4 1 2 1 
5 20 21 1 
6 22 23 1 
7 23 24 1 
8 8 9 1 
9 7 8 1 
10 19 20 1 
11 25 26 1 
12 26 27 1 
13 13 14 1 
14 11 12 1 
15 10 11 1 
16 17 18 1 
17 16 17 1 
18 14 15 1 
19 29 30 1 
20 28 29 1 
ITEM: TIMESTEP
5600
ITEM: NUMBER OF ENTRIES
20
ITEM: BOX BOUNDS pp pp pp
-1.0000000000000000e+01 1.0000000000000000e+01
-1.0000000000000000e+01 1.0000000000000000e+01
-1.0000000000000000e+01 1.0000000000000000e+01
ITEM: ENTRIES index c_bondedatomid1 c_bondedatomid2 c_btype
1 5 6 1 
2 2 3 1 
3 4 5 1 
4 1 2 1 
5 20 21 1 
6 22 23 1 
7 23 24 1 
8 8 9 1 
9 7 8 1 
10 19 20 1 
11 25 26 1 
12 26 27 1 
13 13 14 1 
14 11 12 1 
15 10 11 1 
16 17 18 1 
17 16 17 1 
18 14 15 1 
19 29 30 1 
20 28 29 1 
ITEM: TIMESTEP
5700
ITEM: NUMBER OF ENTRIES
20
ITEM: BOX BOUNDS pp pp pp
-1.0000000000000000e+01 1.0000000000000000e+01
-1.0000000000000000e+01 1.0000000000000000e+01
-1.0000000000000000e+01 1.0000000000000000e+01
ITEM: ENTRIES index c_bondedatomid1 c_bondedatomid2 c_btype
1 5 6 1 
2 2 3 1 
3 4 5 1 
4 1 2 1 
5 20 21 1 
6 22 23 1 
7 23 24 1 
8 8 9 1 
9 7 8 1 
10 19 20 1 
11 25 26 1 
12 26 27 1 
13 13 14 1 
14 11 12 1 
15 10 11 1 
16 17 18 1 
17 16 17 1 
18 14 15 1 
19 29 30 1 
20 28 29 1 
ITEM: TIMESTEP
5800
ITEM: NUMBER OF ENTRIES
20
ITEM: BOX BOUNDS pp pp pp
-1.0000000000000000e+01 1.0000000000000000e+01
-1.0000000000000000e+01 1.0000000000000000e+01
-1.0000000000000000e+01 1.0000000000000000e+01
ITEM: ENTRIES index c_bondedatomid1 c_bondedatomid2 c_btype
1 5 6 1 
2 2 3 1 
3 4 5 1 
4 1 2 1 
5 20 21 1 
6 22 23 1 
7 23 24 1 
8 8 9 1 
9 7 8 1 
10 19 20 1 
11 25 26 1 
12 26 27 1 
13 13 14 1 
14 11 12 1 
15 10 11 1 
16 17 18 1 
17 16 17 1 
18 14 15 1 
19 29 30 1 
20 28 29 1 
ITEM: TIMESTEP
5900
ITEM: NUMBER OF ENTRIES
20
ITEM: BOX BOUNDS pp pp pp
-1.0000000000000000e+01 1.0000000000000000e+01
-1.0000000000000000e+01 1.0000000000000000e+01
-1.0000000000000000e+01 1.0000000000000000e+01
ITEM: ENTRIES index c_bondedatomid1 c_bondedatomid2 c_btype
1 5 6 1 
2 2 3 1 
3 4 5 1 
4 1 2 1 
5 20 21 1 
6 22 23 1 
7 23 24 1 
8 8 9 1 
9 7 8 1 
10 19 20 1 
11 25 26 1 
12 26 27 1 
13 13 14 1 
14 11 12 1 
15 10 11 1 
16 17 18 1 
17 16 17 1 
18 14 15 1 
19 29 30 1 
20 28 29 1 
ITEM: TIMESTEP
6000
ITEM: NUMBER OF ENTRIES
20
ITEM: BOX BOUNDS pp pp pp
-1.0000000000000000e+01 1.0000000000000000e+01
-1.0000000000000000e+01 1.0000000000000000e+01
-1.0000000000000000e+01 1.0000000000000000e+01
ITEM: ENTRIES index c_bondedatomid1 c_bondedatomid2 c_btype
1 5 6 1 
2 2 3 1 
3 4 5 1 
4 1 2 1 
5 20 21 1 
6 22 23 1 
7 23 24 1 
8 8 9 1 
9 7 8 1 
10 19 20 1 
11 25 26 1 
12 26 27 1 
13 13 14 1 
14 11 12 1 
15 10 11 1 
16 17 18 1 
17 16 17 1 
18 14 15 1 
19 29 30 1 
20 28 29 1 
ITEM: TIMESTEP
6100
ITEM: NUMBER OF ENTRIES
20
ITEM: BOX BOUNDS pp pp pp
-1.0000000000000000e+01 1.0000000000000000e+01
-1.0000000000000000e+01 1.0000000000000000e+01
-1.0000000000000000e+01 1.0000000000000000e+01
ITEM: ENTRIES index c_bondedatomid1 c_bondedatomid2 c_btype
1 5 6 1 
2 2 3 1 
3 4 5 1 
4 1 2 1 
5 20 21 1 
6 22 23 1 
7 23 24 1 
8 8 9 1 
9 7 8 1 
10 19 20 1 
11 25 26 1 
12 26 27 1 
13 13 14 1 
14 11 12 1 
15 10 11 1 
16 17 18 1 
17 16 17 1 
18 14 15 1 
19 29 30 1 
20 28 29 1 
ITEM: TIMESTEP
6200
ITEM: NUMBER OF ENTRIES
20
ITEM: BOX BOUNDS pp pp pp
-1.0000000000000000e+01 1.0000000000000000e+01
-1.0000000000000000e+01 1.0000000000000000e+01
-1.0000000000000000e+01 1.0000000000000000e+01
ITEM: ENTRIES index c_bondedatomid1 c_bondedatomid2 c_btype
1 2 3 1 
2 1 2 1 
3 4 5 1 
4 7 8 1 
5 20 21 1 
6 22 23 1 
7 23 24 1 
8 5 6 1 
9 8 9 1 
10 19 20 1 
11 25 26 1 
12 26 27 1 
13 14 15 1 
14 11 12 1 
15 10 11 1 
16 17 18 1 
17 16 17 1 
18 13 14 1 
19 29 30 1 
20 28 29 1 
ITEM: TIMESTEP
6300
ITEM: NUMBER OF ENTRIES
20
ITEM: BOX BOUNDS pp pp pp
-1.0000000000000000e+01 1.0000000000000000e+01
-1.0000000000000000e+01 1.0000000000000000e+01
-1.0000000000000000e+01 1.0000000000000000e+01
ITEM: ENTRIES index c_bondedatomid1 c_bondedatomid2 c_btype
1 2 3 1 
2 1 2 1 
3 4 5 1 
4 7 8 1 
5 20 21 1 
6 22 23 1 
7 23 24 1 
8 5 6 1 
9 8 9 1 
10 19 20 1 
11 25 26 1 
12 26 27 1 
13 14 15 1 
14 11 12 1 
15 10 11 1 
16 17 18 1 
17 16 17 1 
18 13 14 1 
19 29 30 1 
20 28 29 1 
ITEM: TIMESTEP
6400
ITEM: NUMBER OF ENTRIES
20
ITEM: BOX BOUNDS pp pp pp
-1.0000000000000000e+01 1.0000000000000000e+01
-1.0000000000000000e+01 1.0000000000000000e+01
-1.0000000000000000e+01 1.0000000000000000e+01
ITEM: ENTRIES index c_bondedatomid1 c_bondedatomid2 c_btype
1 2 3 1 
2 1 2 1 
3 4 5 1 
4 7 8 1 
5 20 21 1 
6 22 23 1 
7 23 24 1 
8 5 6 1 
9 8 9 1 
10 19 20 1 
11 25 26 1 
12 26 27 1 
13 14 15 1 
14 11 12 1 
15 10 11 1 
16 17 18 1 
17 16 17 1 
18 13 14 1 
19 29 30 1 
20 28 29 1 
ITEM: TIMESTEP
6500
ITEM: NUMBER OF ENTRIES
20
ITEM: BOX BOUNDS pp pp pp
-1.0000000000000000e+01 1.0000000000000000e+01
-1.0000000000000000e+01 1.0000000000000000e+01
-1.0000000000000000e+01 1.0000000000000000e+01
ITEM: ENTRIES index c_bondedatomid1 c_bondedatomid2 c_btype
1 2 3 1 
2 1 2 1 
3 4 5 1 
4 7 8 1 
5 20 21 1 
6 22 23 1 
7 23 24 1 
8 5 6 1 
9 8 9 1 
10 19 20 1 
11 25 26 1 
12 26 27 1 
13 14 15 1 
14 11 12 1 
15 10 11 1 
16 17 18 1 
17 16 17 1 
18 13 14 1 
19 29 30 1 
20 28 29 1 
ITEM: TIMESTEP
6600
ITEM: NUMBER OF ENTRIES
20
ITEM: BOX BOUNDS pp pp pp
-1.0000000000000000e+01 1.0000000000000000e+01
-1.0000000000000000e+01 1.0000000000000000e+01
-1.0000000000000000e+01 1.0000000000000000e+01
ITEM: ENTRIES index c_bondedatomid1 c_bondedatomid2 c_btype
1 2 3 1 
2 1 2 1 
3 4 5 1 
4 7 8 1 
5 20 21 1 
6 22 23 1 
7 23 24 1 
8 5 6 1 
9 8 9 1 
10 19 20 1 
11 25 26 1 
12 26 27 1 
13 14 15 1 
14 11 12 1 
15 10 11 1 
16 17 18 1 
17 16 17 1 
18 13 14 1 
19 29 30 1 
20 28 29 1 
ITEM: TIMESTEP
6700
ITEM: NUMBER OF ENTRIES
20
ITEM: BOX BOUNDS pp pp pp
-1.0000000000000000e+01 1.0000000000000000e+01
-1.0000000000000000e+01 1.0000000000000000e+01
-1.0000000000000000e+01 1.0000000000000000e+01
ITEM: ENTRIES index c_bondedatomid1 c_bondedatomid2 c_btype
1 2 3 1 
2 1 2 1 
3 4 5 1 
4 7 8 1 
5 20 21 1 
6 22 23 1 
7 23 24 1 
8 5 6 1 
9 8 9 1 
10 19 20 1 
11 25 26 1 
12 26 27 1 
13 14 15 1 
14 11 12 1 
15 10 11 1 
16 17 18 1 
17 16 17 1 
18 13 14 1 
19 29 30 1 
20 28 29 1 
ITEM: TIMESTEP
6800
ITEM: NUMBER OF ENTRIES
20
ITEM: BOX BOUNDS pp pp pp
-1.0000000000000000e+01 1.0000000000000000e+01
-1.0000000000000000e+01 1.0000000000000000e+01
-1.0000000000000000e+01 1.0000000000000000e+01
ITEM: ENTRIES index c_bondedatomid1 c_bondedatomid2 c_btype
1 2 3 1 
2 1 2 1 
3 4 5 1 
4 7 8 1 
5 20 21 1 
6 22 23 1 
7 23 24 1 
8 5 6 1 
9 8 9 1 
10 19 20 1 
11 25 26 1 
12 26 27 1 
13 14 15 1 
14 11 12 1 
15 10 11 1 
16 17 18 1 
17 16 17 1 
18 13 14 1 
19 29 30 1 
20 28 29 1 
ITEM: TIMESTEP
6900
ITEM: NUMBER OF ENTRIES
20
ITEM: BOX BOUNDS pp pp pp
-1.0000000000000000e+01 1.0000000000000000e+01
-1.0000000000000000e+01 1.0000000000000000e+01
-1.0000000000000000e+01 1.0000000000000000e+01
ITEM: ENTRIES index c_bondedatomid1 c_bondedatomid2 c_btype
1 2 3 1 
2 1 2 1 
3 4 5 1 
4 7 8 1 
5 20 21 1 
6 22 23 1 
7 23 24 1 
8 5 6 1 
9 8 9 1 
10 19 20 1 
11 25 26 1 
12 26 27 1 
13 14 15 1 
14 11 12 1 
15 10 11 1 
16 17 18 1 
17 16 17 1 
18 13 14 1 
19 29 30 1 
20 28 29 1 
ITEM: TIMESTEP
7000
ITEM: NUMBER OF ENTRIES
20
ITEM: BOX BOUNDS pp pp pp
-1.0000000000000000e+01 1.0000000000000000e+01
-1.0000000000000000e+01 1.0000000000000000e+01
-1.0000000000000000e+01 1.0000000000000000e+01
ITEM: ENTRIES index c_bondedatomid1 c_bondedatomid2 c_btype
1 2 3 1 
2 1 2 1 
3 4 5 1 
4 7 8 1 
5 20 21 1 
6 22 23 1 
7 23 24 1 
8 5 6 1 
9 8 9 1 
10 19 20 1 
11 25 26 1 
12 26 27 1 
13 14 15 1 
14 11 12 1 
15 10 11 1 
16 17 18 1 
17 16 17 1 
18 13 14 1 
19 29 30 1 
20 28 29 1 
ITEM: TIMESTEP
7100
ITEM: NUMBER OF ENTRIES
21
ITEM: BOX BOUNDS pp pp pp
-1.0000000000000000e+01 1.0000000000000000e+01
-1.0000000000000000e+01 1.0000000000000000e+01
-1.0000000000000000e+01 1.0000000000000000e+01
ITEM: ENTRIES index c_bondedatomid1 c_bondedatomid2 c_btype
1 1 2 1 
2 2 3 1 
3 23 24 1 
4 7 8 1 
5 8 9 1 
6 22 23 1 
7 4 5 1 
8 5 6 1 
9 20 21 1 
10 19 20 1 
11 10 11 1 
12 26 27 1 
13 25 26 1 
14 16 17 1 
15 14 15 1 
16 18 28 2 
17 11 12 1 
18 17 18 1 
19 13 14 1 
20 29 30 1 
21 28 29 1 
ITEM: TIMESTEP
7200
ITEM: NUMBER OF ENTRIES
21
ITEM: BOX BOUNDS pp pp pp
-1.0000000000000000e+01 1.0000000000000000e+01
-1.0000000000000000e+01 1.0000000000000000e+01
-1.0000000000000000e+01 1.0000000000000000e+01
ITEM: ENTRIES index c_bondedatomid1 c_bondedatomid2 c_btype
1 1 2 1 
2 2 3 1 
3 23 24 1 
4 7 8 1 
5 8 9 1 
6 22 23 1 
7 4 5 1 
8 5 6 1 
9 20 21 1 
10 19 20 1 
11 10 11 1 
12 26 27 1 
13 25 26 1 
14 16 17 1 
15 14 15 1 
16 18 28 2 
17 11 12 1 
18 17 18 1 
19 13 14 1 
20 29 30 1 
21 28 29 1 
ITEM: TIMESTEP
7300
ITEM: NUMBER OF ENTRIES
21
ITEM: BOX BOUNDS pp pp pp
-1.0000000000000000e+01 1.0000000000000000e+01
-1.0000000000000000e+01 1.0000000000000000e+01
-1.0000000000000000e+01 1.0000000000000000e+01
ITEM: ENTRIES index c_bondedatomid1 c_bondedatomid2 c_btype
1 1 2 1 
2 2 3 1 
3 23 24 1 
4 7 8 1 
5 8 9 1 
6 22 23 1 
7 4 5 1 
8 5 6 1 
9 20 21 1 
10 19 20 1 
11 10 11 1 
12 26 27 1 
13 25 26 1 
14 16 17 1 
15 14 15 1 
16 18 28 2 
17 11 12 1 
18 17 18 1 
19 13 14 1 
20 29 30 1 
21 28 29 1 
ITEM: TIMESTEP
7400
ITEM: NUMBER OF ENTRIES
21
ITEM: BOX BOUNDS pp pp pp
-1.0000000000000000e+01 1.0000000000000000e+01
-1.0000000000000000e+01 1.0000000000000000e+01
-1.0000000000000000e+01 1.0000000000000000e+01
ITEM: ENTRIES index c_bondedatomid1 c_bondedatomid2 c_btype
1 1 2 1 
2 2 3 1 
3 23 24 1 
4 7 8 1 
5 8 9 1 
6 22 23 1 
7 4 5 1 
8 5 6 1 
9 20 21 1 
10 19 20 1 
11 10 11 1 
12 26 27 1 
13 25 26 1 
14 16 17 1 
15 14 15 1 
16 18 28 2 
17 11 12 1 
18 17 18 1 
19 13 14 1 
20 29 30 1 
21 28 29 1 
ITEM: TIMESTEP
7500
ITEM: NUMBER OF ENTRIES
21
ITEM: BOX BOUNDS pp pp pp
-1.0000000000000000e+01 1.0000000000000000e+01
-1.0000000000000000e+01 1.0000000000000000e+01
-1.0000000000000000e+01 1.0000000000000000e+01
ITEM: ENTRIES index c_bondedatomid1 c_bondedatomid2 c_btype
1 1 2 1 
2 2 3 1 
3 23 24 1 
4 7 8 1 
5 8 9 1 
6 22 23 1 
7 4 5 1 
8 5 6 1 
9 20 21 1 
10 19 20 1 
11 10 11 1 
12 26 27 1 
13 25 26 1 
14 16 17 1 
15 14 15 1 
16 18 28 2 
17 11 12 1 
18 17 18 1 
19 13 14 1 
20 29 30 1 
21 28 29 1 
ITEM: TIMESTEP
7600
ITEM: NUMBER OF ENTRIES
21
ITEM: BOX BOUNDS pp pp pp
-1.0000000000000000e+01 1.0000000000000000e+01
-1.0000000000000000e+01 1.0000000000000000e+01
-1.0000000000000000e+01 1.0000000000000000e+01
ITEM: ENTRIES index c_bondedatomid1 c_bondedatomid2 c_btype
1 1 2 1 
2 2 3 1 
3 23 24 1 
4 7 8 1 
5 8 9 1 
6 22 23 1 
7 4 5 1 
8 5 6 1 
9 20 21 1 
10 19 20 1 
11 10 11 1 
12 26 27 1 
13 25 26 1 
14 16 17 1 
15 14 15 1 
16 18 28 2 
17 11 12 1 
18 17 18 1 
19 13 14 1 
20 29 30 1 
21 28 29 1 
ITEM: TIMESTEP
7700
ITEM: NUMBER OF ENTRIES
21
ITEM: BOX BOUNDS pp pp pp
-1.0000000000000000e+01 1.0000000000000000e+01
-1.0000000000000000e+01 1.0000000000000000e+01
-1.0000000000000000e+01 1.0000000000000000e+01
ITEM: ENTRIES index c_bondedatomid1 c_bondedatomid2 c_btype
1 1 2 1 
2 2 3 1 
3 23 24 1 
4 7 8 1 
5 8 9 1 
6 22 23 1 
7 4 5 1 
8 5 6 1 
9 20 21 1 
10 19 20 1 
11 10 11 1 
12 26 27 1 
13 25 26 1 
14 16 17 1 
15 14 15 1 
16 18 28 2 
17 11 12 1 
18 17 18 1 
19 13 14 1 
20 29 30 1 
21 28 29 1 
ITEM: TIMESTEP
7800
ITEM: NUMBER OF ENTRIES
21
ITEM: BOX BOUNDS pp pp pp
-1.0000000000000000e+01 1.0000000000000000e+01
-1.0000000000000000e+01 1.0000000000000000e+01
-1.0000000000000000e+01 1.0000000000000000e+01
ITEM: ENTRIES index c_bondedatomid1 c_bondedatomid2 c_btype
1 1 2 1 
2 2 3 1 
3 23 24 1 
4 7 8 1 
5 8 9 1 
6 22 23 1 
7 4 5 1 
8 5 6 1 
9 20 21 1 
10 19 20 1 
11 10 11 1 
12 26 27 1 
13 25 26 1 
14 16 17 1 
15 14 15 1 
16 18 28 2 
17 11 12 1 
18 17 18 1 
19 13 14 1 
20 29 30 1 
21 28 29 1 
ITEM: TIMESTEP
7900
ITEM: NUMBER OF ENTRIES
21
ITEM: BOX BOUNDS pp pp pp
-1.0000000000000000e+01 1.0000000000000000e+01
-1.0000000000000000e+01 1.0000000000000000e+01
-1.0000000000000000e+01 1.0000000000000000e+01
ITEM: ENTRIES index c_bondedatomid1 c_bondedatomid2 c_btype
1 1 2 1 
2 2 3 1 
3 23 24 1 
4 7 8 1 
5 8 9 1 
6 22 23 1 
7 4 5 1 
8 5 6 1 
9 20 21 1 
10 19 20 1 
11 10 11 1 
12 26 27 1 
13 25 26 1 
14 16 17 1 
15 14 15 1 
16 18 28 2 
17 11 12 1 
18 17 18 1 
19 13 14 1 
20 29 30 1 
21 28 29 1 
ITEM: TIMESTEP
8000
ITEM: NUMBER OF ENTRIES
21
ITEM: BOX BOUNDS pp pp pp
-1.0000000000000000e+01 1.0000000000000000e+01
-1.0000000000000000e+01 1.0000000000000000e+01
-1.0000000000000000e+01 1.0000000000000000e+01
ITEM: ENTRIES index c_bondedatomid1 c_bondedatomid2 c_btype
1 1 2 1 
2 2 3 1 
3 23 24 1 
4 7 8 1 
5 8 9 1 
6 22 23 1 
7 4 5 1 
8 5 6 1 
9 20 21 1 
10 19 20 1 
11 10 11 1 
12 26 27 1 
13 25 26 1 
14 16 17 1 
15 14 15 1 
16 18 28 2 
17 11 12 1 
18 17 18 1 
19 13 14 1 
20 29 30 1 
21 28 29 1 
ITEM: TIMESTEP
8100
ITEM: NUMBER OF ENTRIES
21
ITEM: BOX BOUNDS pp pp pp
-1.0000000000000000e+01 1.0000000000000000e+01
-1.0000000000000000e+01 1.0000000000000000e+01
-1.0000000000000000e+01 1.0000000000000000e+01
ITEM: ENTRIES index c_bondedatomid1 c_bondedatomid2 c_btype
1 1 2 1 
2 2 3 1 
3 23 24 1 
4 7 8 1 
5 8 9 1 
6 22 23 1 
7 4 5 1 
8 5 6 1 
9 20 21 1 
10 19 20 1 
11 10 11 1 
12 26 27 1 
13 25 26 1 
14 16 17 1 
15 14 15 1 
16 18 28 2 
17 11 12 1 
18 17 18 1 
19 13 14 1 
20 29 30 1 
21 28 29 1 
ITEM: TIMESTEP
8200
ITEM: NUMBER OF ENTRIES
21
ITEM: BOX BOUNDS pp pp pp
-1.0000000000000000e+01 1.0000000000000000e+01
-1.0000000000000000e+01 1.0000000000000000e+01
-1.0000000000000000e+01 1.0000000000000000e+01
ITEM: ENTRIES index c_bondedatomid1 c_bondedatomid2 c_btype
1 1 2 1 
2 2 3 1 
3 7 8 1 
4 8 9 1 
5 22 23 1 
6 23 24 1 
7 4 5 1 
8 5 6 1 
9 25 26 1 
10 19 20 1 
11 20 21 1 
12 10 11 1 
13 26 27 1 
14 16 17 1 
15 17 18 1 
16 11 12 1 
17 14 15 1 
18 13 14 1 
19 18 28 2 
20 29 30 1 
21 28 29 1 
ITEM: TIMESTEP
8300
ITEM: NUMBER OF ENTRIES
21
ITEM: BOX BOUNDS pp pp pp
-1.0000000000000000e+01 1.0000000000000000e+01
-1.0000000000000000e+01 1.0000000000000000e+01
-1.0000000000000000e+01 1.0000000000000000e+01
ITEM: ENTRIES index c_bondedatomid1 c_bondedatomid2 c_btype
1 1 2 1 
2 2 3 1 
3 7 8 1 
4 8 9 1 
5 22 23 1 
6 23 24 1 
7 4 5 1 
8 5 6 1 
9 25 26 1 
10 19 20 1 
11 20 21 1 
12 10 11 1 
13 26 27 1 
14 16 17 1 
15 17 18 1 
16 11 12 1 
17 14 15 1 
18 13 14 1 
19 18 28 2 
20 29 30 1 
21 28 29 1 
ITEM: TIMESTEP
8400
ITEM: NUMBER OF ENTRIES
21
ITEM: BOX BOUNDS pp pp pp
-1.0000000000000000e+01 1.0000000000000000e+01
-1.0000000000000000e+01 1.0000000000000000e+01
-1.0000000000000000e+01 1.0000000000000000e+01
ITEM: ENTRIES index c_bondedatomid1 c_bondedatomid2 c_btype
1 1 2 1 
2 2 3 1 
3 7 8 1 
4 8 9 1 
5 22 23 1 
6 23 24 1 
7 4 5 1 
8 5 6 1 
9 25 26 1 
10 19 20 1 
11 20 21 1 
12 10 11 1 
13 26 27 1 
14 16 17 1 
15 17 18 1 
16 11 12 1 
17 14 15 1 
18 13 14 1 
19 18 28 2 
20 29 30 1 
21 28 29 1 
ITEM: TIMESTEP
8500
ITEM: NUMBER OF ENTRIES
21
ITEM: BOX BOUNDS pp pp pp
-1.0000000000000000e+01 1.0000000000000000e+01
-1.0000000000000000e+01 1.0000000000000000e+01
-1.0000000000000000e+01 1.0000000000000000e+01
ITEM: ENTRIES index c_bondedatomid1 c_bondedatomid2 c_btype
1 1 2 1 
2 2 3 1 
3 7 8 1 
4 8 9 1 
5 22 23 1 
6 23 24 1 
7 4 5 1 
8 5 6 1 
9 25 26 1 
10 19 20 1 
11 20 21 1 
12 10 11 1 
13 26 27 1 
14 16 17 1 
15 17 18 1 
16 11 12 1 
17 14 15 1 
18 13 14 1 
19 18 28 2 
20 29 30 1 
21 28 29 1 
ITEM: TIMESTEP
8600
ITEM: NUMBER OF ENTRIES
21
ITEM: BOX BOUNDS pp pp pp
-1.0000000000000000e+01 1.0000000000000000e+01
-1.0000000000000000e+01 1.0000000000000000e+01
-1.0000000000000000e+01 1.0000000000000000e+01
ITEM: ENTRIES index c_bondedatomid1 c_bondedatomid2 c_btype
1 1 2 1 
2 2 3 1 
3 7 8 1 
4 8 9 1 
5 22 23 1 
6 23 24 1 
7 4 5 1 
8 5 6 1 
9 25 26 1 
10 19 20 1 
11 20 21 1 
12 10 11 1 
13 26 27 1 
14 16 17 1 
15 17 18 1 
16 11 12 1 
17 14 15 1 
18 13 14 1 
19 18 28 2 
20 29 30 1 
21 28 29 1 
ITEM: TIMESTEP
8700
ITEM: NUMBER OF ENTRIES
21
ITEM: BOX BOUNDS pp pp pp
-1.0000000000000000e+01 1.0000000000000000e+01
-1.0000000000000000e+01 1.0000000000000000e+01
-1.0000000000000000e+01 1.0000000000000000e+01
ITEM: ENTRIES index c_bondedatomid1 c_bondedatomid2 c_btype
1 1 2 1 
2 2 3 1 
3 7 8 1 
4 8 9 1 
5 22 23 1 
6 23 24 1 
7 4 5 1 
8 5 6 1 
9 25 26 1 
10 19 20 1 
11 20 21 1 
12 10 11 1 
13 26 27 1 
14 16 17 1 
15 17 18 1 
16 11 12 1 
17 14 15 1 
18 13 14 1 
19 18 28 2 
20 29 30 1 
21 28 29 1 
ITEM: TIMESTEP
8800
ITEM: NUMBER OF ENTRIES
21
ITEM: BOX BOUNDS pp pp pp
-1.0000000000000000e+01 1.0000000000000000e+01
-1.0000000000000000e+01 1.0000000000000000e+01
-1.0000000000000000e+01 1.0000000000000000e+01
ITEM: ENTRIES index c_bondedatomid1 c_bondedatomid2 c_btype
1 1 2 1 
2 2 3 1 
3 7 8 1 
4 8 9 1 
5 22 23 1 
6 23 24 1 
7 4 5 1 
8 5 6 1 
9 25 26 1 
10 19 20 1 
11 20 21 1 
12 10 11 1 
13 26 27 1 
14 16 17 1 
15 17 18 1 
16 11 12 1 
17 14 15 1 
18 13 14 1 
19 18 28 2 
20 29 30 1 
21 28 29 1 
ITEM: TIMESTEP
8900
ITEM: NUMBER OF ENTRIES
21
ITEM: BOX BOUNDS pp pp pp
-1.0000000000000000e+01 1.0000000000000000e+01
-1.0000000000000000e+01 1.0000000000000000e+01
-1.0000000000000000e+01 1.0000000000000000e+01
ITEM: ENTRIES index c_bondedatomid1 c_bondedatomid2 c_btype
1 1 2 1 
2 2 3 1 
3 7 8 1 
4 8 9 1 
5 22 23 1 
6 23 24 1 
7 4 5 1 
8 5 6 1 
9 25 26 1 
10 19 20 1 
11 20 21 1 
12 10 11 1 
13 26 27 1 
14 16 17 1 
15 17 18 1 
16 11 12 1 
17 14 15 1 
18 13 14 1 
19 18 28 2 
20 29 30 1 
21 28 29 1 
ITEM: TIMESTEP
9000
ITEM: NUMBER OF ENTRIES
21
ITEM: BOX BOUNDS pp pp pp
-1.0000000000000000e+01 1.0000000000000000e+01
-1.0000000000000000e+01 1.0000000000000000e+01
-1.0000000000000000e+01 1.0000000000000000e+01
ITEM: ENTRIES index c_bondedatomid1 c_bondedatomid2 c_btype
1 1 2 1 
2 2 3 1 
3 7 8 1 
4 8 9 1 
5 22 23 1 
6 23 24 1 
7 4 5 1 
8 5 6 1 
9 25 26 1 
10 19 20 1 
11 20 21 1 
12 10 11 1 
13 26 27 1 
14 16 17 1 
15 17 18 1 
16 11 12 1 
17 14 15 1 
18 13 14 1 
19 18 28 2 
20 29 30 1 
21 28 29 1 
ITEM: TIMESTEP
9100
ITEM: NUMBER OF ENTRIES
21
ITEM: BOX BOUNDS pp pp pp
-1.0000000000000000e+01 1.0000000000000000e+01
-1.0000000000000000e+01 1.0000000000000000e+01
-1.0000000000000000e+01 1.0000000000000000e+01
ITEM: ENTRIES index c_bondedatomid1 c_bondedatomid2 c_btype
1 1 2 1 
2 2 3 1 
3 7 8 1 
4 8 9 1 
5 22 23 1 
6 23 24 1 
7 4 5 1 
8 5 6 1 
9 25 26 1 
10 19 20 1 
11 20 21 1 
12 10 11 1 
13 26 27 1 
14 16 17 1 
15 17 18 1 
16 11 12 1 
17 14 15 1 
18 13 14 1 
19 18 28 2 
20 29 30 1 
21 28 29 1 
ITEM: TIMESTEP
9200
ITEM: NUMBER OF ENTRIES
21
ITEM: BOX BOUNDS pp pp pp
-1.0000000000000000e+01 1.0000000000000000e+01
-1.0000000000000000e+01 1.0000000000000000e+01
-1.0000000000000000e+01 1.0000000000000000e+01
ITEM: ENTRIES index c_bondedatomid1 c_bondedatomid2 c_btype
1 1 2 1 
2 2 3 1 
3 23 24 1 
4 7 8 1 
5 8 9 1 
6 22 23 1 
7 4 5 1 
8 5 6 1 
9 25 26 1 
10 26 27 1 
11 19 20 1 
12 20 21 1 
13 10 11 1 
14 11 12 1 
15 14 15 1 
16 13 14 1 
17 16 17 1 
18 17 18 1 
19 18 28 2 
20 29 30 1 
21 28 29 1 
ITEM: TIMESTEP
9300
ITEM: NUMBER OF ENTRIES
21
ITEM: BOX BOUNDS pp pp pp
-1.0000000000000000e+01 1.0000000000000000e+01
-1.0000000000000000e+01 1.0000000000000000e+01
-1.0000000000000000e+01 1.0000000000000000e+01
ITEM: ENTRIES index c_bondedatomid1 c_bondedatomid2 c_btype
1 1 2 1 
2 2 3 1 
3 23 24 1 
4 7 8 1 
5 8 9 1 
6 22 23 1 
7 4 5 1 
8 5 6 1 
9 25 26 1 
10 26 27 1 
11 19 20 1 
12 20 21 1 
13 10 11 1 
14 11 12 1 
15 14 15 1 
16 13 14 1 
17 16 17 1 
18 17 18 1 
19 18 28 2 
20 29 30 1 
21 28 29 1 
ITEM: TIMESTEP
9400
ITEM: NUMBER OF ENTRIES
21
ITEM: BOX BOUNDS pp pp pp
-1.0000000000000000e+01 1.0000000000000000e+01
-1.0000000000000000e+01 1.0000000000000000e+01
-1.0000000000000000e+01 1.0000000000000000e+01
ITEM: ENTRIES index c_bondedatomid1 c_bondedatomid2 c_btype
1 1 2 1 
2 2 3 1 
3 23 24 1 
4 7 8 1 
5 8 9 1 
6 22 23 1 
7 4 5 1 
8 5 6 1 
9 25 26 1 
10 26 27 1 
11 19 20 1 
12 20 21 1 
13 10 11 1 
14 11 12 1 
15 14 15 1 
16 13 14 1 
17 16 17 1 
18 17 18 1 
19 18 28 2 
20 29 30 1 
21 28 29 1 
ITEM: TIMESTEP
9500
ITEM: NUMBER OF ENTRIES
21
ITEM: BOX BOUNDS pp pp pp
-1.0000000000000000e+01 1.0000000000000000e+01
-1.0000000000000000e+01 1.0000000000000000e+01
-1.0000000000000000e+01 1.0000000000000000e+01
ITEM: ENTRIES index c_bondedatomid1 c_bondedatomid2 c_btype
1 1 2 1 
2 2 3 1 
3 23 24 1 
4 7 8 1 
5 8 9 1 
6 22 23 1 
7 4 5 1 
8 5 6 1 
9 25 26 1 
10 26 27 1 
11 19 20 1 
12 20 21 1 
13 10 11 1 
14 11 12 1 
15 14 15 1 
16 13 14 1 
17 16 17 1 
18 17 18 1 
19 18 28 2 
20 29 30 1 
21 28 29 1 
ITEM: TIMESTEP
9600
ITEM: NUMBER OF ENTRIES
21
ITEM: BOX BOUNDS pp pp pp
-1.0000000000000000e+01 1.0000000000000000e+01
-1.0000000000000000e+01 1.0000000000000000e+01
-1.0000000000000000e+01 1.0000000000000000e+01
ITEM: ENTRIES index c_bondedatomid1 c_bondedatomid2 c_btype
1 1 2 1 
2 2 3 1 
3 23 24 1 
4 7 8 1 
5 8 9 1 
6 22 23 1 
7 4 5 1 
8 5 6 1 
9 25 26 1 
10 26 27 1 
11 19 20 1 
12 20 21 1 
13 10 11 1 
14 11 12 1 
15 14 15 1 
16 13 14 1 
17 16 17 1 
18 17 18 1 
19 18 28 2 
20 29 30 1 
21 28 29 1 
ITEM: TIMESTEP
9700
ITEM: NUMBER OF ENTRIES
21
ITEM: BOX BOUNDS pp pp pp
-1.0000000000000000e+01 1.0000000000000000e+01
-1.0000000000000000e+01 1.0000000000000000e+01
-1.0000000000000000e+01 1.0000000000000000e+01
ITEM: ENTRIES index c_bondedatomid1 c_bondedatomid2 c_btype
1 1 2 1 
2 2 3 1 
3 23 24 1 
4 7 8 1 
5 8 9 1 
6 22 23 1 
7 4 5 1 
8 5 6 1 
9 25 26 1 
10 26 27 1 
11 19 20 1 
12 20 21 1 
13 10 11 1 
14 11 12 1 
15 14 15 1 
16 13 14 1 
17 16 17 1 
18 17 18 1 
19 18 28 2 
20 29 30 1 
21 28 29 1 
ITEM: TIMESTEP
9800
ITEM: NUMBER OF ENTRIES
21
ITEM: BOX BOUNDS pp pp pp
-1.0000000000000000e+01 1.0000000000000000e+01
-1.0000000000000000e+01 1.0000000000000000e+01
-1.0000000000000000e+01 1.0000000000000000e+01
ITEM: ENTRIES index c_bondedatomid1 c_bondedatomid2 c_btype
1 1 2 1 
2 2 3 1 
3 23 24 1 
4 7 8 1 
5 8 9 1 
6 22 23 1 
7 4 5 1 
8 5 6 1 
9 25 26 1 
10 26 27 1 
11 19 20 1 
12 20 21 1 
13 10 11 1 
14 11 12 1 
15 14 15 1 
16 13 14 1 
17 16 17 1 
18 17 18 1 
19 18 28 2 
20 29 30 1 
21 28 29 1 
ITEM: TIMESTEP
9900
ITEM: NUMBER OF ENTRIES
21
ITEM: BOX BOUNDS pp pp pp
-1.0000000000000000e+01 1.0000000000000000e+01
-1.0000000000000000e+01 1.0000000000000000e+01
-1.0000000000000000e+01 1.0000000000000000e+01
ITEM: ENTRIES index c_bondedatomid1 c_bondedatomid2 c_btype
1 1 2 1 
2 2 3 1 
3 23 24 1 
4 7 8 1 
5 8 9 1 
6 22 23 1 
7 4 5 1 
8 5 6 1 
9 25 26 1 
10 26 27 1 
11 19 20 1 
12 20 21 1 
13 10 11 1 
14 11 12 1 
15 14 15 1 
16 13 14 1 
17 16 17 1 
18 17 18 1 
19 18 28 2 
20 29 30 1 
21 28 29 1 
ITEM: TIMESTEP
10000
ITEM: NUMBER OF ENTRIES
21
ITEM: BOX BOUNDS pp pp pp
-1.0000000000000000e+01 1.0000000000000000e+01
-1.0000000000000000e+01 1.0000000000000000e+01
-1.0000000000000000e+01 1.0000000000000000e+01
ITEM: ENTRIES index c_bondedatomid1 c_bondedatomid2 c_btype
1 1 2 1 
2 2 3 1 
3 23 24 1 
4 7 8 1 
5 8 9 1 
6 22 23 1 
7 4 5 1 
8 5 6 1 
9 25 26 1 
10 26 27 1 
11 19 20 1 
12 20 21 1 
13 10 11 1 
14 11 12 1 
15 14 15 1 
16 13 14 1 
17 16 17 1 
18 17 18 1 
19 18 28 2 
20 29 30 1 
21 28 29 1 
ITEM: TIMESTEP
10100
ITEM: NUMBER OF ENTRIES
21
ITEM: BOX BOUNDS pp pp pp
-1.0000000000000000e+01 1.0000000000000000e+01
-1.0000000000000000e+01 1.0000000000000000e+01
-1.0000000000000000e+01 1.0000000000000000e+01
ITEM: ENTRIES index c_bondedatomid1 c_bondedatomid2 c_btype
1 1 2 1 
2 2 3 1 
3 23 24 1 
4 7 8 1 
5 8 9 1 
6 22 23 1 
7 4 5 1 
8 5 6 1 
9 25 26 1 
10 26 27 1 
11 19 20 1 
12 20 21 1 
13 10 11 1 
14 11 12 1 
15 14 15 1 
16 13 14 1 
17 16 17 1 
18 17 18 1 
19 18 28 2 
20 29 30 1 
21 28 29 1 
ITEM: TIMESTEP
10200
ITEM: NUMBER OF ENTRIES
21
ITEM: BOX BOUNDS pp pp pp
-1.0000000000000000e+01 1.0000000000000000e+01
-1.0000000000000000e+01 1.0000000000000000e+01
-1.0000000000000000e+01 1.0000000000000000e+01
ITEM: ENTRIES index c_bondedatomid1 c_bondedatomid2 c_btype
1 22 23 1 
2 2 3 1 
3 23 24 1 
4 7 8 1 
5 8 9 1 
6 1 2 1 
7 19 20 1 
8 4 5 1 
9 5 6 1 
10 25 26 1 
11 26 27 1 
12 20 21 1 
13 10 11 1 
14 11 12 1 
15 13 14 1 
16 16 17 1 
17 17 18 1 
18 18 28 2 
19 29 30 1 
20 28 29 1 
21 14 15 1 
ITEM: TIMESTEP
10300
ITEM: NUMBER OF ENTRIES
21
ITEM: BOX BOUNDS pp pp pp
-1.0000000000000000e+01 1.0000000000000000e+01
-1.0000000000000000e+01 1.0000000000000000e+01
-1.0000000000000000e+01 1.0000000000000000e+01
ITEM: ENTRIES index c_bondedatomid1 c_bondedatomid2 c_btype
1 22 23 1 
2 2 3 1 
3 23 24 1 
4 7 8 1 
5 8 9 1 
6 1 2 1 
7 19 20 1 
8 4 5 1 
9 5 6 1 
10 25 26 1 
11 26 27 1 
12 20 21 1 
13 10 11 1 
14 11 12 1 
15 13 14 1 
16 16 17 1 
17 17 18 1 
18 18 28 2 
19 29 30 1 
20 28 29 1 
21 14 15 1 
ITEM: TIMESTEP
10400
ITEM: NUMBER OF ENTRIES
21
ITEM: BOX BOUNDS pp pp pp
-1.0000000000000000e+01 1.0000000000000000e+01
-1.0000000000000000e+01 1.0000000000000000e+01
-1.0000000000000000e+01 1.0000000000000000e+01
ITEM: ENTRIES index c_bondedatomid1 c_bondedatomid2 c_btype
1 22 23 1 
2 2 3 1 
3 23 24 1 
4 7 8 1 
5 8 9 1 
6 1 2 1 
7 19 20 1 
8 4 5 1 
9 5 6 1 
10 25 26 1 
11 26 27 1 
12 20 21 1 
13 10 11 1 
14 11 12 1 
15 13 14 1 
16 16 17 1 
17 17 18 1 
18 18 28 2 
19 29 30 1 
20 28 29 1 
21 14 15 1 
ITEM: TIMESTEP
10500
ITEM: NUMBER OF ENTRIES
21
ITEM: BOX BOUNDS pp pp pp
-1.0000000000000000e+01 1.0000000000000000e+01
-1.0000000000000000e+01 1.0000000000000000e+01
-1.0000000000000000e+01 1.0000000000000000e+01
ITEM: ENTRIES index c_bondedatomid1 c_bondedatomid2 c_btype
1 22 23 1 
2 2 3 1 
3 23 24 1 
4 7 8 1 
5 8 9 1 
6 1 2 1 
7 19 20 1 
8 4 5 1 
9 5 6 1 
10 25 26 1 
11 26 27 1 
12 20 21 1 
13 10 11 1 
14 11 12 1 
15 13 14 1 
16 16 17 1 
17 17 18 1 
18 18 28 2 
19 29 30 1 
20 28 29 1 
21 14 15 1 
ITEM: TIMESTEP
10600
ITEM: NUMBER OF ENTRIES
21
ITEM: BOX BOUNDS pp pp pp
-1.0000000000000000e+01 1.0000000000000000e+01
-1.0000000000000000e+01 1.0000000000000000e+01
-1.0000000000000000e+01 1.0000000000000000e+01
ITEM: ENTRIES index c_bondedatomid1 c_bondedatomid2 c_btype
1 22 23 1 
2 2 3 1 
3 23 24 1 
4 7 8 1 
5 8 9 1 
6 1 2 1 
7 19 20 1 
8 4 5 1 
9 5 6 1 
10 25 26 1 
11 26 27 1 
12 20 21 1 
13 10 11 1 
14 11 12 1 
15 13 14 1 
16 16 17 1 
17 17 18 1 
18 18 28 2 
19 29 30 1 
20 28 29 1 
21 14 15 1 
ITEM: TIMESTEP
10700
ITEM: NUMBER OF ENTRIES
21
ITEM: BOX BOUNDS pp pp pp
-1.0000000000000000e+01 1.0000000000000000e+01
-1.0000000000000000e+01 1.0000000000000000e+01
-1.0000000000000000e+01 1.0000000000000000e+01
ITEM: ENTRIES index c_bondedatomid1 c_bondedatomid2 c_btype
1 22 23 1 
2 2 3 1 
3 23 24 1 
4 7 8 1 
5 8 9 1 
6 1 2 1 
7 19 20 1 
8 4 5 1 
9 5 6 1 
10 25 26 1 
11 26 27 1 
12 20 21 1 
13 10 11 1 
14 11 12 1 
15 13 14 1 
16 16 17 1 
17 17 18 1 
18 18 28 2 
19 29 30 1 
20 28 29 1 
21 14 15 1 
ITEM: TIMESTEP
10800
ITEM: NUMBER OF ENTRIES
21
ITEM: BOX BOUNDS pp pp pp
-1.0000000000000000e+01 1.0000000000000000e+01
-1.0000000000000000e+01 1.0000000000000000e+01
-1.0000000000000000e+01 1.0000000000000000e+01
ITEM: ENTRIES index c_bondedatomid1 c_bondedatomid2 c_btype
1 22 23 1 
2 2 3 1 
3 23 24 1 
4 7 8 1 
5 8 9 1 
6 1 2 1 
7 19 20 1 
8 4 5 1 
9 5 6 1 
10 25 26 1 
11 26 27 1 
12 20 21 1 
13 10 11 1 
14 11 12 1 
15 13 14 1 
16 16 17 1 
17 17 18 1 
18 18 28 2 
19 29 30 1 
20 28 29 1 
21 14 15 1 
ITEM: TIMESTEP
10900
ITEM: NUMBER OF ENTRIES
21
ITEM: BOX BOUNDS pp pp pp
-1.0000000000000000e+01 1.0000000000000000e+01
-1.0000000000000000e+01 1.0000000000000000e+01
-1.0000000000000000e+01 1.0000000000000000e+01
ITEM: ENTRIES index c_bondedatomid1 c_bondedatomid2 c_btype
1 22 23 1 
2 2 3 1 
3 23 24 1 
4 7 8 1 
5 8 9 1 
6 1 2 1 
7 19 20 1 
8 4 5 1 
9 5 6 1 
10 25 26 1 
11 26 27 1 
12 20 21 1 
13 10 11 1 
14 11 12 1 
15 13 14 1 
16 16 17 1 
17 17 18 1 
18 18 28 2 
19 29 30 1 
20 28 29 1 
21 14 15 1 
ITEM: TIMESTEP
11000
ITEM: NUMBER OF ENTRIES
21
ITEM: BOX BOUNDS pp pp pp
-1.0000000000000000e+01 1.0000000000000000e+01
-1.0000000000000000e+01 1.0000000000000000e+01
-1.0000000000000000e+01 1.0000000000000000e+01
ITEM: ENTRIES index c_bondedatomid1 c_bondedatomid2 c_btype
1 22 23 1 
2 2 3 1 
3 23 24 1 
4 7 8 1 
5 8 9 1 
6 1 2 1 
7 19 20 1 
8 4 5 1 
9 5 6 1 
10 25 26 1 
11 26 27 1 
12 20 21 1 
13 10 11 1 
14 11 12 1 
15 13 14 1 
16 16 17 1 
17 17 18 1 
18 18 28 2 
19 29 30 1 
20 28 29 1 
21 14 15 1 
ITEM: TIMESTEP
11100
ITEM: NUMBER OF ENTRIES
21
ITEM: BOX BOUNDS pp pp pp
-1.0000000000000000e+01 1.0000000000000000e+01
-1.0000000000000000e+01 1.0000000000000000e+01
-1.0000000000000000e+01 1.0000000000000000e+01
ITEM: ENTRIES index c_bondedatomid1 c_bondedatomid2 c_btype
1 22 23 1 
2 2 3 1 
3 23 24 1 
4 7 8 1 
5 8 9 1 
6 1 2 1 
7 19 20 1 
8 4 5 1 
9 5 6 1 
10 25 26 1 
11 26 27 1 
12 20 21 1 
13 10 11 1 
14 11 12 1 
15 13 14 1 
16 16 17 1 
17 17 18 1 
18 18 28 2 
19 29 30 1 
20 28 29 1 
21 14 15 1 
ITEM: TIMESTEP
11200
ITEM: NUMBER OF ENTRIES
21
ITEM: BOX BOUNDS pp pp pp
-1.0000000000000000e+01 1.0000000000000000e+01
-1.0000000000000000e+01 1.0000000000000000e+01
-1.0000000000000000e+01 1.0000000000000000e+01
ITEM: ENTRIES index c_bondedatomid1 c_bondedatomid2 c_btype
1 2 3 1 
2 1 2 1 
3 22 23 1 
4 23 24 1 
5 7 8 1 
6 8 9 1 
7 19 20 1 
8 20 21 1 
9 5 6 1 
10 4 5 1 
11 26 27 1 
12 10 11 1 
13 11 12 1 
14 25 26 1 
15 16 17 1 
16 17 18 1 
17 29 30 1 
18 28 29 1 
19 18 28 2 
20 13 14 1 
21 14 15 1 
ITEM: TIMESTEP
11300
ITEM: NUMBER OF ENTRIES
21
ITEM: BOX BOUNDS pp pp pp
-1.0000000000000000e+01 1.0000000000000000e+01
-1.0000000000000000e+01 1.0000000000000000e+01
-1.0000000000000000e+01 1.0000000000000000e+01
ITEM: ENTRIES index c_bondedatomid1 c_bondedatomid2 c_btype
1 2 3 1 
2 1 2 1 
3 22 23 1 
4 23 24 1 
5 7 8 1 
6 8 9 1 
7 19 20 1 
8 20 21 1 
9 5 6 1 
10 4 5 1 
11 26 27 1 
12 10 11 1 
13 11 12 1 
14 25 26 1 
15 16 17 1 
16 17 18 1 
17 29 30 1 
18 28 29 1 
19 18 28 2 
20 13 14 1 
21 14 15 1 
ITEM: TIMESTEP
11400
ITEM: NUMBER OF ENTRIES
21
ITEM: BOX BOUNDS pp pp pp
-1.0000000000000000e+01 1.0000000000000000e+01
-1.0000000000000000e+01 1.0000000000000000e+01
-1.0000000000000000e+01 1.0000000000000000e+01
ITEM: ENTRIES index c_bondedatomid1 c_bondedatomid2 c_btype
1 2 3 1 
2 1 2 1 
3 22 23 1 
4 23 24 1 
5 7 8 1 
6 8 9 1 
7 19 20 1 
8 20 21 1 
9 5 6 1 
10 4 5 1 
11 26 27 1 
12 10 11 1 
13 11 12 1 
14 25 26 1 
15 16 17 1 
16 17 18 1 
17 29 30 1 
18 28 29 1 
19 18 28 2 
20 13 14 1 
21 14 15 1 
ITEM: TIMESTEP
11500
ITEM: NUMBER OF ENTRIES
21
ITEM: BOX BOUNDS pp pp pp
-1.0000000000000000e+01 1.0000000000000000e+01
-1.0000000000000000e+01 1.0000000000000000e+01
-1.0000000000000000e+01 1.0000000000000000e+01
ITEM: ENTRIES index c_bondedatomid1 c_bondedatomid2 c_btype
1 2 3 1 
2 1 2 1 
3 22 23 1 
4 23 24 1 
5 7 8 1 
6 8 9 1 
7 19 20 1 
8 20 21 1 
9 5 6 1 
10 4 5 1 
11 26 27 1 
12 10 11 1 
13 11 12 1 
14 25 26 1 
15 16 17 1 
16 17 18 1 
17 29 30 1 
18 28 29 1 
19 18 28 2 
20 13 14 1 
21 14 15 1 
ITEM: TIMESTEP
11600
ITEM: NUMBER OF ENTRIES
21
ITEM: BOX BOUNDS pp pp pp
-1.0000000000000000e+01 1.0000000000000000e+01
-1.0000000000000000e+01 1.0000000000000000e+01
-1.0000000000000000e+01 1.0000000000000000e+01
ITEM: ENTRIES index c_bondedatomid1 c_bondedatomid2 c_btype
1 2 3 1 
2 1 2 1 
3 22 23 1 
4 23 24 1 
5 7 8 1 
6 8 9 1 
7 19 20 1 
8 20 21 1 
9 5 6 1 
10 4 5 1 
11 26 27 1 
12 10 11 1 
13 11 12 1 
14 25 26 1 
15 16 17 1 
16 17 18 1 
17 29 30 1 
18 28 29 1 
19 18 28 2 
20 13 14 1 
21 14 15 1 
ITEM: TIMESTEP
11700
ITEM: NUMBER OF ENTRIES
21
ITEM: BOX BOUNDS pp pp pp
-1.0000000000000000e+01 1.0000000000000000e+01
-1.0000000000000000e+01 1.0000000000000000e+01
-1.0000000000000000e+01 1.0000000000000000e+01
ITEM: ENTRIES index c_bondedatomid1 c_bondedatomid2 c_btype
1 2 3 1 
2 1 2 1 
3 22 23 1 
4 23 24 1 
5 7 8 1 
6 8 9 1 
7 19 20 1 
8 20 21 1 
9 5 6 1 
10 4 5 1 
11 26 27 1 
12 10 11 1 
13 11 12 1 
14 25 26 1 
15 16 17 1 
16 17 18 1 
17 29 30 1 
18 28 29 1 
19 18 28 2 
20 13 14 1 
21 14 15 1 
ITEM: TIMESTEP
11800
ITEM: NUMBER OF ENTRIES
21
ITEM: BOX BOUNDS pp pp pp
-1.0000000000000000e+01 1.0000000000000000e+01
-1.0000000000000000e+01 1.0000000000000000e+01
-1.0000000000000000e+01 1.0000000000000000e+01
ITEM: ENTRIES index c_bondedatomid1 c_bondedatomid2 c_btype
1 2 3 1 
2 1 2 1 
3 22 23 1 
4 23 24 1 
5 7 8 1 
6 8 9 1 
7 19 20 1 
8 20 21 1 
9 5 6 1 
10 4 5 1 
11 26 27 1 
12 10 11 1 
13 11 12 1 
14 25 26 1 
15 16 17 1 
16 17 18 1 
17 29 30 1 
18 28 29 1 
19 18 28 2 
20 13 14 1 
21 14 15 1 
ITEM: TIMESTEP
11900
ITEM: NUMBER OF ENTRIES
21
ITEM: BOX BOUNDS pp pp pp
-1.0000000000000000e+01 1.0000000000000000e+01
-1.0000000000000000e+01 1.0000000000000000e+01
-1.0000000000000000e+01 1.0000000000000000e+01
ITEM: ENTRIES index c_bondedatomid1 c_bondedatomid2 c_btype
1 2 3 1 
2 1 2 1 
3 22 23 1 
4 23 24 1 
5 7 8 1 
6 8 9 1 
7 19 20 1 
8 20 21 1 
9 5 6 1 
10 4 5 1 
11 26 27 1 
12 10 11 1 
13 11 12 1 
14 25 26 1 
15 16 17 1 
16 17 18 1 
17 29 30 1 
18 28 29 1 
19 18 28 2 
20 13 14 1 
21 14 15 1 
ITEM: TIMESTEP
12000
ITEM: NUMBER OF ENTRIES
21
ITEM: BOX BOUNDS pp pp pp
-1.0000000000000000e+01 1.0000000000000000e+01
-1.0000000000000000e+01 1.0000000000000000e+01
-1.0000000000000000e+01 1.0000000000000000e+01
ITEM: ENTRIES index c_bondedatomid1 c_bondedatomid2 c_btype
1 2 3 1 
2 1 2 1 
3 22 23 1 
4 23 24 1 
5 7 8 1 
6 8 9 1 
7 19 20 1 
8 20 21 1 
9 5 6 1 
10 4 5 1 
11 26 27 1 
12 10 11 1 
13 11 12 1 
14 25 26 1 
15 16 17 1 
16 17 18 1 
17 29 30 1 
18 28 29 1 
19 18 28 2 
20 13 14 1 
21 14 15 1 
ITEM: TIMESTEP
12100
ITEM: NUMBER OF ENTRIES
21
ITEM: BOX BOUNDS pp pp pp
-1.0000000000000000e+01 1.0000000000000000e+01
-1.0000000000000000e+01 1.0000000000000000e+01
-1.0000000000000000e+01 1.0000000000000000e+01
ITEM: ENTRIES index c_bondedatomid1 c_bondedatomid2 c_btype
1 28 29 1 
2 2 3 1 
3 1 2 1 
4 22 23 1 
5 23 24 1 
6 7 8 1 
7 8 9 1 
8 5 6 1 
9 4 5 1 
10 19 20 1 
11 20 21 1 
12 26 27 1 
13 11 12 1 
14 10 11 1 
15 25 26 1 
16 18 28 2 
17 16 17 1 
18 29 30 1 
19 17 18 1 
20 13 14 1 
21 14 15 1 
ITEM: TIMESTEP
12200
ITEM: NUMBER OF ENTRIES
21
ITEM: BOX BOUNDS pp pp pp
-1.0000000000000000e+01 1.0000000000000000e+01
-1.0000000000000000e+01 1.0000000000000000e+01
-1.0000000000000000e+01 1.0000000000000000e+01
ITEM: ENTRIES index c_bondedatomid1 c_bondedatomid2 c_btype
1 28 29 1 
2 2 3 1 
3 1 2 1 
4 22 23 1 
5 23 24 1 
6 7 8 1 
7 8 9 1 
8 5 6 1 
9 4 5 1 
10 19 20 1 
11 20 21 1 
12 26 27 1 
13 11 12 1 
14 10 11 1 
15 25 26 1 
16 18 28 2 
17 16 17 1 
18 29 30 1 
19 17 18 1 
20 13 14 1 
21 14 15 1 
ITEM: TIMESTEP
12300
ITEM: NUMBER OF ENTRIES
21
ITEM: BOX BOUNDS pp pp pp
-1.0000000000000000e+01 1.0000000000000000e+01
-1.0000000000000000e+01 1.0000000000000000e+01
-1.0000000000000000e+01 1.0000000000000000e+01
ITEM: ENTRIES index c_bondedatomid1 c_bondedatomid2 c_btype
1 28 29 1 
2 2 3 1 
3 1 2 1 
4 22 23 1 
5 23 24 1 
6 7 8 1 
7 8 9 1 
8 5 6 1 
9 4 5 1 
10 19 20 1 
11 20 21 1 
12 26 27 1 
13 11 12 1 
14 10 11 1 
15 25 26 1 
16 18 28 2 
17 16 17 1 
18 29 30 1 
19 17 18 1 
20 13 14 1 
21 14 15 1 
ITEM: TIMESTEP
12400
ITEM: NUMBER OF ENTRIES
21
ITEM: BOX BOUNDS pp pp pp
-1.0000000000000000e+01 1.0000000000000000e+01
-1.0000000000000000e+01 1.0000000000000000e+01
-1.0000000000000000e+01 1.0000000000000000e+01
ITEM: ENTRIES index c_bondedatomid1 c_bondedatomid2 c_btype
1 28 29 1 
2 2 3 1 
3 1 2 1 
4 22 23 1 
5 23 24 1 
6 7 8 1 
7 8 9 1 
8 5 6 1 
9 4 5 1 
10 19 20 1 
11 20 21 1 
12 26 27 1 
13 11 12 1 
14 10 11 1 
15 25 26 1 
16 18 28 2 
17 16 17 1 
18 29 30 1 
19 17 18 1 
20 13 14 1 
21 14 15 1 
ITEM: TIMESTEP
12500
ITEM: NUMBER OF ENTRIES
22
ITEM: BOX BOUNDS pp pp pp
-1.0000000000000000e+01 1.0000000000000000e+01
-1.0000000000000000e+01 1.0000000000000000e+01
-1.0000000000000000e+01 1.0000000000000000e+01
ITEM: ENTRIES index c_bondedatomid1 c_bondedatomid2 c_btype
1 28 29 1 
2 2 3 1 
3 1 2 1 
4 22 23 1 
5 23 24 1 
6 7 8 1 
7 8 9 1 
8 5 6 1 
9 4 5 1 
10 19 20 1 
11 20 21 1 
12 26 27 1 
13 11 12 1 
14 10 11 1 
15 25 26 1 
16 18 28 2 
17 16 17 1 
18 16 29 2 
19 29 30 1 
20 17 18 1 
21 13 14 1 
22 14 15 1 
ITEM: TIMESTEP
12600
ITEM: NUMBER OF ENTRIES
22
ITEM: BOX BOUNDS pp pp pp
-1.0000000000000000e+01 1.0000000000000000e+01
-1.0000000000000000e+01 1.0000000000000000e+01
-1.0000000000000000e+01 1.0000000000000000e+01
ITEM: ENTRIES index c_bondedatomid1 c_bondedatomid2 c_btype
1 28 29 1 
2 2 3 1 
3 1 2 1 
4 22 23 1 
5 23 24 1 
6 7 8 1 
7 8 9 1 
8 5 6 1 
9 4 5 1 
10 19 20 1 
11 20 21 1 
12 26 27 1 
13 11 12 1 
14 10 11 1 
15 25 26 1 
16 18 28 2 
17 16 17 1 
18 16 29 2 
19 29 30 1 
20 17 18 1 
21 13 14 1 
22 14 15 1 
ITEM: TIMESTEP
12700
ITEM: NUMBER OF ENTRIES
22
ITEM: BOX BOUNDS pp pp pp
-1.0000000000000000e+01 1.0000000000000000e+01
-1.0000000000000000e+01 1.0000000000000000e+01
-1.0000000000000000e+01 1.0000000000000000e+01
ITEM: ENTRIES index c_bondedatomid1 c_bondedatomid2 c_btype
1 28 29 1 
2 2 3 1 
3 1 2 1 
4 22 23 1 
5 23 24 1 
6 7 8 1 
7 8 9 1 
8 5 6 1 
9 4 5 1 
10 19 20 1 
11 20 21 1 
12 26 27 1 
13 11 12 1 
14 10 11 1 
15 25 26 1 
16 18 28 2 
17 16 17 1 
18 16 29 2 
19 29 30 1 
20 17 18 1 
21 13 14 1 
22 14 15 1 
ITEM: TIMESTEP
12800
ITEM: NUMBER OF ENTRIES
22
ITEM: BOX BOUNDS pp pp pp
-1.0000000000000000e+01 1.0000000000000000e+01
-1.0000000000000000e+01 1.0000000000000000e+01
-1.0000000000000000e+01 1.0000000000000000e+01
ITEM: ENTRIES index c_bondedatomid1 c_bondedatomid2 c_btype
1 28 29 1 
2 2 3 1 
3 1 2 1 
4 22 23 1 
5 23 24 1 
6 7 8 1 
7 8 9 1 
8 5 6 1 
9 4 5 1 
10 19 20 1 
11 20 21 1 
12 26 27 1 
13 11 12 1 
14 10 11 1 
15 25 26 1 
16 18 28 2 
17 16 17 1 
18 16 29 2 
19 29 30 1 
20 17 18 1 
21 13 14 1 
22 14 15 1 
ITEM: TIMESTEP
12900
ITEM: NUMBER OF ENTRIES
22
ITEM: BOX BOUNDS pp pp pp
-1.0000000000000000e+01 1.0000000000000000e+01
-1.0000000000000000e+01 1.0000000000000000e+01
-1.0000000000000000e+01 1.0000000000000000e+01
ITEM: ENTRIES index c_bondedatomid1 c_bondedatomid2 c_btype
1 28 29 1 
2 2 3 1 
3 1 2 1 
4 22 23 1 
5 23 24 1 
6 7 8 1 
7 8 9 1 
8 5 6 1 
9 4 5 1 
10 19 20 1 
11 20 21 1 
12 26 27 1 
13 11 12 1 
14 10 11 1 
15 25 26 1 
16 18 28 2 
17 16 17 1 
18 16 29 2 
19 29 30 1 
20 17 18 1 
21 13 14 1 
22 14 15 1 
ITEM: TIMESTEP
13000
ITEM: NUMBER OF ENTRIES
22
ITEM: BOX BOUNDS pp pp pp
-1.0000000000000000e+01 1.0000000000000000e+01
-1.0000000000000000e+01 1.0000000000000000e+01
-1.0000000000000000e+01 1.0000000000000000e+01
ITEM: ENTRIES index c_bondedatomid1 c_bondedatomid2 c_btype
1 28 29 1 
2 2 3 1 
3 1 2 1 
4 22 23 1 
5 23 24 1 
6 7 8 1 
7 8 9 1 
8 5 6 1 
9 4 5 1 
10 19 20 1 
11 20 21 1 
12 26 27 1 
13 11 12 1 
14 10 11 1 
15 25 26 1 
16 18 28 2 
17 16 17 1 
18 16 29 2 
19 29 30 1 
20 17 18 1 
21 13 14 1 
22 14 15 1 
ITEM: TIMESTEP
13100
ITEM: NUMBER OF ENTRIES
22
ITEM: BOX BOUNDS pp pp pp
-1.0000000000000000e+01 1.0000000000000000e+01
-1.0000000000000000e+01 1.0000000000000000e+01
-1.0000000000000000e+01 1.0000000000000000e+01
ITEM: ENTRIES index c_bondedatomid1 c_bondedatomid2 c_btype
1 28 29 1 
2 2 3 1 
3 1 2 1 
4 22 23 1 
5 23 24 1 
6 7 8 1 
7 8 9 1 
8 5 6 1 
9 4 5 1 
10 19 20 1 
11 20 21 1 
12 26 27 1 
13 11 12 1 
14 10 11 1 
15 25 26 1 
16 18 28 2 
17 16 17 1 
18 16 29 2 
19 29 30 1 
20 17 18 1 
21 13 14 1 
22 14 15 1 
ITEM: TIMESTEP
13200
ITEM: NUMBER OF ENTRIES
22
ITEM: BOX BOUNDS pp pp pp
-1.0000000000000000e+01 1.0000000000000000e+01
-1.0000000000000000e+01 1.0000000000000000e+01
-1.0000000000000000e+01 1.0000000000000000e+01
ITEM: ENTRIES index c_bondedatomid1 c_bondedatomid2 c_btype
1 18 28 2 
2 28 29 1 
3 2 3 1 
4 22 23 1 
5 23 24 1 
6 7 8 1 
7 8 9 1 
8 5 6 1 
9 4 5 1 
10 1 2 1 
11 19 20 1 
12 20 21 1 
13 11 12 1 
14 10 11 1 
15 26 27 1 
16 25 26 1 
17 16 17 1 
18 16 29 2 
19 17 18 1 
20 29 30 1 
21 13 14 1 
22 14 15 1 
ITEM: TIMESTEP
13300
ITEM: NUMBER OF ENTRIES
22
ITEM: BOX BOUNDS pp pp pp
-1.0000000000000000e+01 1.0000000000000000e+01
-1.0000000000000000e+01 1.0000000000000000e+01
-1.0000000000000000e+01 1.0000000000000000e+01
ITEM: ENTRIES index c_bondedatomid1 c_bondedatomid2 c_btype
1 18 28 2 
2 28 29 1 
3 2 3 1 
4 22 23 1 
5 23 24 1 
6 7 8 1 
7 8 9 1 
8 5 6 1 
9 4 5 1 
10 1 2 1 
11 19 20 1 
12 20 21 1 
13 11 12 1 
14 10 11 1 
15 26 27 1 
16 25 26 1 
17 16 17 1 
18 16 29 2 
19 17 18 1 
20 29 30 1 
21 13 14 1 
22 14 15 1 
ITEM: TIMESTEP
13400
ITEM: NUMBER OF ENTRIES
22
ITEM: BOX BOUNDS pp pp pp
-1.0000000000000000e+01 1.0000000000000000e+01
-1.0000000000000000e+01 1.0000000000000000e+01
-1.0000000000000000e+01 1.0000000000000000e+01
ITEM: ENTRIES index c_bondedatomid1 c_bondedatomid2 c_btype
1 18 28 2 
2 28 29 1 
3 2 3 1 
4 22 23 1 
5 23 24 1 
6 7 8 1 
7 8 9 1 
8 5 6 1 
9 4 5 1 
10 1 2 1 
11 19 20 1 
12 20 21 1 
13 11 12 1 
14 10 11 1 
15 26 27 1 
16 25 26 1 
17 16 17 1 
18 16 29 2 
19 17 18 1 
20 29 30 1 
21 13 14 1 
22 14 15 1 
ITEM: TIMESTEP
13500
ITEM: NUMBER OF ENTRIES
22
ITEM: BOX BOUNDS pp pp pp
-1.0000000000000000e+01 1.0000000000000000e+01
-1.0000000000000000e+01 1.0000000000000000e+01
-1.0000000000000000e+01 1.0000000000000000e+01
ITEM: ENTRIES index c_bondedatomid1 c_bondedatomid2 c_btype
1 18 28 2 
2 28 29 1 
3 2 3 1 
4 22 23 1 
5 23 24 1 
6 7 8 1 
7 8 9 1 
8 5 6 1 
9 4 5 1 
10 1 2 1 
11 19 20 1 
12 20 21 1 
13 11 12 1 
14 10 11 1 
15 26 27 1 
16 25 26 1 
17 16 17 1 
18 16 29 2 
19 17 18 1 
20 29 30 1 
21 13 14 1 
22 14 15 1 
ITEM: TIMESTEP
13600
ITEM: NUMBER OF ENTRIES
22
ITEM: BOX BOUNDS pp pp pp
-1.0000000000000000e+01 1.0000000000000000e+01
-1.0000000000000000e+01 1.0000000000000000e+01
-1.0000000000000000e+01 1.0000000000000000e+01
ITEM: ENTRIES index c_bondedatomid1 c_bondedatomid2 c_btype
1 18 28 2 
2 28 29 1 
3 2 3 1 
4 22 23 1 
5 23 24 1 
6 7 8 1 
7 8 9 1 
8 5 6 1 
9 4 5 1 
10 1 2 1 
11 19 20 1 
12 20 21 1 
13 11 12 1 
14 10 11 1 
15 26 27 1 
16 25 26 1 
17 16 17 1 
18 16 29 2 
19 17 18 1 
20 29 30 1 
21 13 14 1 
22 14 15 1 
ITEM: TIMESTEP
13700
ITEM: NUMBER OF ENTRIES
22
ITEM: BOX BOUNDS pp pp pp
-1.0000000000000000e+01 1.0000000000000000e+01
-1.0000000000000000e+01 1.0000000000000000e+01
-1.0000000000000000e+01 1.0000000000000000e+01
ITEM: ENTRIES index c_bondedatomid1 c_bondedatomid2 c_btype
1 18 28 2 
2 28 29 1 
3 2 3 1 
4 22 23 1 
5 23 24 1 
6 7 8 1 
7 8 9 1 
8 5 6 1 
9 4 5 1 
10 1 2 1 
11 19 20 1 
12 20 21 1 
13 11 12 1 
14 10 11 1 
15 26 27 1 
16 25 26 1 
17 16 17 1 
18 16 29 2 
19 17 18 1 
20 29 30 1 
21 13 14 1 
22 14 15 1 
ITEM: TIMESTEP
13800
ITEM: NUMBER OF ENTRIES
22
ITEM: BOX BOUNDS pp pp pp
-1.0000000000000000e+01 1.0000000000000000e+01
-1.0000000000000000e+01 1.0000000000000000e+01
-1.0000000000000000e+01 1.0000000000000000e+01
ITEM: ENTRIES index c_bondedatomid1 c_bondedatomid2 c_btype
1 18 28 2 
2 28 29 1 
3 2 3 1 
4 22 23 1 
5 23 24 1 
6 7 8 1 
7 8 9 1 
8 5 6 1 
9 4 5 1 
10 1 2 1 
11 19 20 1 
12 20 21 1 
13 11 12 1 
14 10 11 1 
15 26 27 1 
16 25 26 1 
17 16 17 1 
18 16 29 2 
19 17 18 1 
20 29 30 1 
21 13 14 1 
22 14 15 1 
ITEM: TIMESTEP
13900
ITEM: NUMBER OF ENTRIES
22
ITEM: BOX BOUNDS pp pp pp
-1.0000000000000000e+01 1.0000000000000000e+01
-1.0000000000000000e+01 1.0000000000000000e+01
-1.0000000000000000e+01 1.0000000000000000e+01
ITEM: ENTRIES index c_bondedatomid1 c_bondedatomid2 c_btype
1 18 28 2 
2 28 29 1 
3 2 3 1 
4 22 23 1 
5 23 24 1 
6 7 8 1 
7 8 9 1 
8 5 6 1 
9 4 5 1 
10 1 2 1 
11 19 20 1 
12 20 21 1 
13 11 12 1 
14 10 11 1 
15 26 27 1 
16 25 26 1 
17 16 17 1 
18 16 29 2 
19 17 18 1 
20 29 30 1 
21 13 14 1 
22 14 15 1 
ITEM: TIMESTEP
14000
ITEM: NUMBER OF ENTRIES
22
ITEM: BOX BOUNDS pp pp pp
-1.0000000000000000e+01 1.0000000000000000e+01
-1.0000000000000000e+01 1.0000000000000000e+01
-1.0000000000000000e+01 1.0000000000000000e+01
ITEM: ENTRIES index c_bondedatomid1 c_bondedatomid2 c_btype
1 18 28 2 
2 28 29 1 
3 16 17 1 
4 16 29 2 
5 17 18 1 
6 29 30 1 
7 19 20 1 
8 2 3 1 
9 1 2 1 
10 23 24 1 
11 8 9 1 
12 7 8 1 
13 5 6 1 
14 4 5 1 
15 20 21 1 
16 22 23 1 
17 11 12 1 
18 10 11 1 
19 25 26 1 
20 26 27 1 
21 13 14 1 
22 14 15 1 
ITEM: TIMESTEP
14100
ITEM: NUMBER OF ENTRIES
22
ITEM: BOX BOUNDS pp pp pp
-1.0000000000000000e+01 1.0000000000000000e+01
-1.0000000000000000e+01 1.0000000000000000e+01
-1.0000000000000000e+01 1.0000000000000000e+01
ITEM: ENTRIES index c_bondedatomid1 c_bondedatomid2 c_btype
1 18 28 2 
2 28 29 1 
3 16 17 1 
4 16 29 2 
5 17 18 1 
6 29 30 1 
7 19 20 1 
8 2 3 1 
9 1 2 1 
10 23 24 1 
11 8 9 1 
12 7 8 1 
13 5 6 1 
14 4 5 1 
15 20 21 1 
16 22 23 1 
17 11 12 1 
18 10 11 1 
19 25 26 1 
20 26 27 1 
21 13 14 1 
22 14 15 1 
ITEM: TIMESTEP
14200
ITEM: NUMBER OF ENTRIES
22
ITEM: BOX BOUNDS pp pp pp
-1.0000000000000000e+01 1.0000000000000000e+01
-1.0000000000000000e+01 1.0000000000000000e+01
-1.0000000000000000e+01 1.0000000000000000e+01
ITEM: ENTRIES index c_bondedatomid1 c_bondedatomid2 c_btype
1 18 28 2 
2 28 29 1 
3 16 17 1 
4 16 29 2 
5 17 18 1 
6 29 30 1 
7 19 20 1 
8 2 3 1 
9 1 2 1 
10 23 24 1 
11 8 9 1 
12 7 8 1 
13 5 6 1 
14 4 5 1 
15 20 21 1 
16 22 23 1 
17 11 12 1 
18 10 11 1 
19 25 26 1 
20 26 27 1 
21 13 14 1 
22 14 15 1 
ITEM: TIMESTEP
14300
ITEM: NUMBER OF ENTRIES
22
ITEM: BOX BOUNDS pp pp pp
-1.0000000000000000e+01 1.0000000000000000e+01
-1.0000000000000000e+01 1.0000000000000000e+01
-1.0000000000000000e+01 1.0000000000000000e+01
ITEM: ENTRIES index c_bondedatomid1 c_bondedatomid2 c_btype
1 18 28 2 
2 28 29 1 
3 16 17 1 
4 16 29 2 
5 17 18 1 
6 29 30 1 
7 19 20 1 
8 2 3 1 
9 1 2 1 
10 23 24 1 
11 8 9 1 
12 7 8 1 
13 5 6 1 
14 4 5 1 
15 20 21 1 
16 22 23 1 
17 11 12 1 
18 10 11 1 
19 25 26 1 
20 26 27 1 
21 13 14 1 
22 14 15 1 
ITEM: TIMESTEP
14400
ITEM: NUMBER OF ENTRIES
22
ITEM: BOX BOUNDS pp pp pp
-1.0000000000000000e+01 1.0000000000000000e+01
-1.0000000000000000e+01 1.0000000000000000e+01
-1.0000000000000000e+01 1.0000000000000000e+01
ITEM: ENTRIES index c_bondedatomid1 c_bondedatomid2 c_btype
1 18 28 2 
2 28 29 1 
3 16 17 1 
4 16 29 2 
5 17 18 1 
6 29 30 1 
7 19 20 1 
8 2 3 1 
9 1 2 1 
10 23 24 1 
11 8 9 1 
12 7 8 1 
13 5 6 1 
14 4 5 1 
15 20 21 1 
16 22 23 1 
17 11 12 1 
18 10 11 1 
19 25 26 1 
20 26 27 1 
21 13 14 1 
22 14 15 1 
ITEM: TIMESTEP
14500
ITEM: NUMBER OF ENTRIES
22
ITEM: BOX BOUNDS pp pp pp
-1.0000000000000000e+01 1.0000000000000000e+01
-1.0000000000000000e+01 1.0000000000000000e+01
-1.0000000000000000e+01 1.0000000000000000e+01
ITEM: ENTRIES index c_bondedatomid1 c_bondedatomid2 c_btype
1 18 28 2 
2 28 29 1 
3 16 17 1 
4 16 29 2 
5 17 18 1 
6 29 30 1 
7 19 20 1 
8 2 3 1 
9 1 2 1 
10 23 24 1 
11 8 9 1 
12 7 8 1 
13 5 6 1 
14 4 5 1 
15 20 21 1 
16 22 23 1 
17 11 12 1 
18 10 11 1 
19 25 26 1 
20 26 27 1 
21 13 14 1 
22 14 15 1 
ITEM: TIMESTEP
14600
ITEM: NUMBER OF ENTRIES
22
ITEM: BOX BOUNDS pp pp pp
-1.0000000000000000e+01 1.0000000000000000e+01
-1.0000000000000000e+01 1.0000000000000000e+01
-1.0000000000000000e+01 1.0000000000000000e+01
ITEM: ENTRIES index c_bondedatomid1 c_bondedatomid2 c_btype
1 18 28 2 
2 28 29 1 
3 16 17 1 
4 16 29 2 
5 17 18 1 
6 29 30 1 
7 19 20 1 
8 2 3 1 
9 1 2 1 
10 23 24 1 
11 8 9 1 
12 7 8 1 
13 5 6 1 
14 4 5 1 
15 20 21 1 
16 22 23 1 
17 11 12 1 
18 10 11 1 
19 25 26 1 
20 26 27 1 
21 13 14 1 
22 14 15 1 
ITEM: TIMESTEP
14700
ITEM: NUMBER OF ENTRIES
22
ITEM: BOX BOUNDS pp pp pp
-1.0000000000000000e+01 1.0000000000000000e+01
-1.0000000000000000e+01 1.0000000000000000e+01
-1.0000000000000000e+01 1.0000000000000000e+01
ITEM: ENTRIES index c_bondedatomid1 c_bondedatomid2 c_btype
1 18 28 2 
2 28 29 1 
3 16 17 1 
4 16 29 2 
5 17 18 1 
6 29 30 1 
7 19 20 1 
8 2 3 1 
9 1 2 1 
10 23 24 1 
11 8 9 1 
12 7 8 1 
13 5 6 1 
14 4 5 1 
15 20 21 1 
16 22 23 1 
17 11 12 1 
18 10 11 1 
19 25 26 1 
20 26 27 1 
21 13 14 1 
22 14 15 1 
ITEM: TIMESTEP
14800
ITEM: NUMBER OF ENTRIES
22
ITEM: BOX BOUNDS pp pp pp
-1.0000000000000000e+01 1.0000000000000000e+01
-1.0000000000000000e+01 1.0000000000000000e+01
-1.0000000000000000e+01 1.0000000000000000e+01
ITEM: ENTRIES index c_bondedatomid1 c_bondedatomid2 c_btype
1 18 28 2 
2 28 29 1 
3 16 17 1 
4 16 29 2 
5 17 18 1 
6 29 30 1 
7 19 20 1 
8 2 3 1 
9 1 2 1 
10 23 24 1 
11 8 9 1 
12 7 8 1 
13 5 6 1 
14 4 5 1 
15 20 21 1 
16 22 23 1 
17 11 12 1 
18 10 11 1 
19 25 26 1 
20 26 27 1 
21 13 14 1 
22 14 15 1 
ITEM: TIMESTEP
14900
ITEM: NUMBER OF ENTRIES
22
ITEM: BOX BOUNDS pp pp pp
-1.0000000000000000e+01 1.0000000000000000e+01
-1.0000000000000000e+01 1.0000000000000000e+01
-1.0000000000000000e+01 1.0000000000000000e+01
ITEM: ENTRIES index c_bondedatomid1 c_bondedatomid2 c_btype
1 18 28 2 
2 28 29 1 
3 16 17 1 
4 16 29 2 
5 17 18 1 
6 29 30 1 
7 19 20 1 
8 2 3 1 
9 1 2 1 
10 23 24 1 
11 8 9 1 
12 7 8 1 
13 5 6 1 
14 4 5 1 
15 20 21 1 
16 22 23 1 
17 11 12 1 
18 10 11 1 
19 25 26 1 
20 26 27 1 
21 13 14 1 
22 14 15 1 
ITEM: TIMESTEP
15000
ITEM: NUMBER OF ENTRIES
22
ITEM: BOX BOUNDS pp pp pp
-1.0000000000000000e+01 1.0000000000000000e+01
-1.0000000000000000e+01 1.0000000000000000e+01
-1.0000000000000000e+01 1.0000000000000000e+01
ITEM: ENTRIES index c_bondedatomid1 c_bondedatomid2 c_btype
1 18 28 2 
2 28 29 1 
3 16 17 1 
4 16 29 2 
5 17 18 1 
6 29 30 1 
7 19 20 1 
8 2 3 1 
9 1 2 1 
10 23 24 1 
11 8 9 1 
12 7 8 1 
13 5 6 1 
14 4 5 1 
15 20 21 1 
16 22 23 1 
17 11 12 1 
18 10 11 1 
19 25 26 1 
20 26 27 1 
21 13 14 1 
22 14 15 1 
ITEM: TIMESTEP
15100
ITEM: NUMBER OF ENTRIES
22
ITEM: BOX BOUNDS pp pp pp
-1.0000000000000000e+01 1.0000000000000000e+01
-1.0000000000000000e+01 1.0000000000000000e+01
-1.0000000000000000e+01 1.0000000000000000e+01
ITEM: ENTRIES index c_bondedatomid1 c_bondedatomid2 c_btype
1 16 17 1 
2 16 29 2 
3 17 18 1 
4 18 28 2 
5 28 29 1 
6 29 30 1 
7 2 3 1 
8 1 2 1 
9 23 24 1 
10 22 23 1 
11 8 9 1 
12 7 8 1 
13 4 5 1 
14 5 6 1 
15 19 20 1 
16 20 21 1 
17 11 12 1 
18 10 11 1 
19 25 26 1 
20 26 27 1 
21 13 14 1 
22 14 15 1 
ITEM: TIMESTEP
15200
ITEM: NUMBER OF ENTRIES
22
ITEM: BOX BOUNDS pp pp pp
-1.0000000000000000e+01 1.0000000000000000e+01
-1.0000000000000000e+01 1.0000000000000000e+01
-1.0000000000000000e+01 1.0000000000000000e+01
ITEM: ENTRIES index c_bondedatomid1 c_bondedatomid2 c_btype
1 16 17 1 
2 16 29 2 
3 17 18 1 
4 18 28 2 
5 28 29 1 
6 29 30 1 
7 2 3 1 
8 1 2 1 
9 23 24 1 
10 22 23 1 
11 8 9 1 
12 7 8 1 
13 4 5 1 
14 5 6 1 
15 19 20 1 
16 20 21 1 
17 11 12 1 
18 10 11 1 
19 25 26 1 
20 26 27 1 
21 13 14 1 
22 14 15 1 
ITEM: TIMESTEP
15300
ITEM: NUMBER OF ENTRIES
22
ITEM: BOX BOUNDS pp pp pp
-1.0000000000000000e+01 1.0000000000000000e+01
-1.0000000000000000e+01 1.0000000000000000e+01
-1.0000000000000000e+01 1.0000000000000000e+01
ITEM: ENTRIES index c_bondedatomid1 c_bondedatomid2 c_btype
1 16 17 1 
2 16 29 2 
3 17 18 1 
4 18 28 2 
5 28 29 1 
6 29 30 1 
7 2 3 1 
8 1 2 1 
9 23 24 1 
10 22 23 1 
11 8 9 1 
12 7 8 1 
13 4 5 1 
14 5 6 1 
15 19 20 1 
16 20 21 1 
17 11 12 1 
18 10 11 1 
19 25 26 1 
20 26 27 1 
21 13 14 1 
22 14 15 1 
ITEM: TIMESTEP
15400
ITEM: NUMBER OF ENTRIES
22
ITEM: BOX BOUNDS pp pp pp
-1.0000000000000000e+01 1.0000000000000000e+01
-1.0000000000000000e+01 1.0000000000000000e+01
-1.0000000000000000e+01 1.0000000000000000e+01
ITEM: ENTRIES index c_bondedatomid1 c_bondedatomid2 c_btype
1 16 17 1 
2 16 29 2 
3 17 18 1 
4 18 28 2 
5 28 29 1 
6 29 30 1 
7 2 3 1 
8 1 2 1 
9 23 24 1 
10 22 23 1 
11 8 9 1 
12 7 8 1 
13 4 5 1 
14 5 6 1 
15 19 20 1 
16 20 21 1 
17 11 12 1 
18 10 11 1 
19 25 26 1 
20 26 27 1 
21 13 14 1 
22 14 15 1 
ITEM: TIMESTEP
15500
ITEM: NUMBER OF ENTRIES
22
ITEM: BOX BOUNDS pp pp pp
-1.0000000000000000e+01 1.0000000000000000e+01
-1.0000000000000000e+01 1.0000000000000000e+01
-1.0000000000000000e+01 1.0000000000000000e+01
ITEM: ENTRIES index c_bondedatomid1 c_bondedatomid2 c_btype
1 16 17 1 
2 16 29 2 
3 17 18 1 
4 18 28 2 
5 28 29 1 
6 29 30 1 
7 2 3 1 
8 1 2 1 
9 23 24 1 
10 22 23 1 
11 8 9 1 
12 7 8 1 
13 4 5 1 
14 5 6 1 
15 19 20 1 
16 20 21 1 
17 11 12 1 
18 10 11 1 
19 25 26 1 
20 26 27 1 
21 13 14 1 
22 14 15 1 
ITEM: TIMESTEP
15600
ITEM: NUMBER OF ENTRIES
22
ITEM: BOX BOUNDS pp pp pp
-1.0000000000000000e+01 1.0000000000000000e+01
-1.0000000000000000e+01 1.0000000000000000e+01
-1.0000000000000000e+01 1.0000000000000000e+01
ITEM: ENTRIES index c_bondedatomid1 c_bondedatomid2 c_btype
1 16 17 1 
2 16 29 2 
3 17 18 1 
4 18 28 2 
5 28 29 1 
6 29 30 1 
7 2 3 1 
8 1 2 1 
9 23 24 1 
10 22 23 1 
11 8 9 1 
12 7 8 1 
13 4 5 1 
14 5 6 1 
15 19 20 1 
16 20 21 1 
17 11 12 1 
18 10 11 1 
19 25 26 1 
20 26 27 1 
21 13 14 1 
22 14 15 1 
ITEM: TIMESTEP
15700
ITEM: NUMBER OF ENTRIES
22
ITEM: BOX BOUNDS pp pp pp
-1.0000000000000000e+01 1.0000000000000000e+01
-1.0000000000000000e+01 1.0000000000000000e+01
-1.0000000000000000e+01 1.0000000000000000e+01
ITEM: ENTRIES index c_bondedatomid1 c_bondedatomid2 c_btype
1 16 17 1 
2 16 29 2 
3 17 18 1 
4 18 28 2 
5 28 29 1 
6 29 30 1 
7 2 3 1 
8 1 2 1 
9 23 24 1 
10 22 23 1 
11 8 9 1 
12 7 8 1 
13 4 5 1 
14 5 6 1 
15 19 20 1 
16 20 21 1 
17 11 12 1 
18 10 11 1 
19 25 26 1 
20 26 27 1 
21 13 14 1 
22 14 15 1 
ITEM: TIMESTEP
15800
ITEM: NUMBER OF ENTRIES
22
ITEM: BOX BOUNDS pp pp pp
-1.0000000000000000e+01 1.0000000000000000e+01
-1.0000000000000000e+01 1.0000000000000000e+01
-1.0000000000000000e+01 1.0000000000000000e+01
ITEM: ENTRIES index c_bondedatomid1 c_bondedatomid2 c_btype
1 16 17 1 
2 16 29 2 
3 17 18 1 
4 18 28 2 
5 28 29 1 
6 29 30 1 
7 2 3 1 
8 1 2 1 
9 23 24 1 
10 22 23 1 
11 8 9 1 
12 7 8 1 
13 4 5 1 
14 5 6 1 
15 19 20 1 
16 20 21 1 
17 11 12 1 
18 10 11 1 
19 25 26 1 
20 26 27 1 
21 13 14 1 
22 14 15 1 
ITEM: TIMESTEP
15900
ITEM: NUMBER OF ENTRIES
22
ITEM: BOX BOUNDS pp pp pp
-1.0000000000000000e+01 1.0000000000000000e+01
-1.0000000000000000e+01 1.0000000000000000e+01
-1.0000000000000000e+01 1.0000000000000000e+01
ITEM: ENTRIES index c_bondedatomid1 c_bondedatomid2 c_btype
1 16 17 1 
2 16 29 2 
3 17 18 1 
4 18 28 2 
5 28 29 1 
6 29 30 1 
7 2 3 1 
8 1 2 1 
9 23 24 1 
10 22 23 1 
11 8 9 1 
12 7 8 1 
13 4 5 1 
14 5 6 1 
15 19 20 1 
16 20 21 1 
17 11 12 1 
18 10 11 1 
19 25 26 1 
20 26 27 1 
21 13 14 1 
22 14 15 1 
ITEM: TIMESTEP
16000
ITEM: NUMBER OF ENTRIES
22
ITEM: BOX BOUNDS pp pp pp
-1.0000000000000000e+01 1.0000000000000000e+01
-1.0000000000000000e+01 1.0000000000000000e+01
-1.0000000000000000e+01 1.0000000000000000e+01
ITEM: ENTRIES index c_bondedatomid1 c_bondedatomid2 c_btype
1 16 17 1 
2 16 29 2 
3 17 18 1 
4 18 28 2 
5 28 29 1 
6 29 30 1 
7 2 3 1 
8 1 2 1 
9 23 24 1 
10 22 23 1 
11 8 9 1 
12 7 8 1 
13 4 5 1 
14 5 6 1 
15 19 20 1 
16 20 21 1 
17 11 12 1 
18 10 11 1 
19 25 26 1 
20 26 27 1 
21 13 14 1 
22 14 15 1 
ITEM: TIMESTEP
16100
ITEM: NUMBER OF ENTRIES
22
ITEM: BOX BOUNDS pp pp pp
-1.0000000000000000e+01 1.0000000000000000e+01
-1.0000000000000000e+01 1.0000000000000000e+01
-1.0000000000000000e+01 1.0000000000000000e+01
ITEM: ENTRIES index c_bondedatomid1 c_bondedatomid2 c_btype
1 17 18 1 
2 18 28 2 
3 28 29 1 
4 8 9 1 
5 16 17 1 
6 16 29 2 
7 29 30 1 
8 2 3 1 
9 1 2 1 
10 23 24 1 
11 7 8 1 
12 4 5 1 
13 5 6 1 
14 19 20 1 
15 20 21 1 
16 22 23 1 
17 11 12 1 
18 10 11 1 
19 26 27 1 
20 25 26 1 
21 13 14 1 
22 14 15 1 
ITEM: TIMESTEP
16200
ITEM: NUMBER OF ENTRIES
22
ITEM: BOX BOUNDS pp pp pp
-1.0000000000000000e+01 1.0000000000000000e+01
-1.0000000000000000e+01 1.0000000000000000e+01
-1.0000000000000000e+01 1.0000000000000000e+01
ITEM: ENTRIES index c_bondedatomid1 c_bondedatomid2 c_btype
1 17 18 1 
2 18 28 2 
3 28 29 1 
4 8 9 1 
5 16 17 1 
6 16 29 2 
7 29 30 1 
8 2 3 1 
9 1 2 1 
10 23 24 1 
11 7 8 1 
12 4 5 1 
13 5 6 1 
14 19 20 1 
15 20 21 1 
16 22 23 1 
17 11 12 1 
18 10 11 1 
19 26 27 1 
20 25 26 1 
21 13 14 1 
22 14 15 1 
ITEM: TIMESTEP
16300
ITEM: NUMBER OF ENTRIES
22
ITEM: BOX BOUNDS pp pp pp
-1.0000000000000000e+01 1.0000000000000000e+01
-1.0000000000000000e+01 1.0000000000000000e+01
-1.0000000000000000e+01 1.0000000000000000e+01
ITEM: ENTRIES index c_bondedatomid1 c_bondedatomid2 c_btype
1 17 18 1 
2 18 28 2 
3 28 29 1 
4 8 9 1 
5 16 17 1 
6 16 29 2 
7 29 30 1 
8 2 3 1 
9 1 2 1 
10 23 24 1 
11 7 8 1 
12 4 5 1 
13 5 6 1 
14 19 20 1 
15 20 21 1 
16 22 23 1 
17 11 12 1 
18 10 11 1 
19 26 27 1 
20 25 26 1 
21 13 14 1 
22 14 15 1 
ITEM: TIMESTEP
16400
ITEM: NUMBER OF ENTRIES
22
ITEM: BOX BOUNDS pp pp pp
-1.0000000000000000e+01 1.0000000000000000e+01
-1.0000000000000000e+01 1.0000000000000000e+01
-1.0000000000000000e+01 1.0000000000000000e+01
ITEM: ENTRIES index c_bondedatomid1 c_bondedatomid2 c_btype
1 17 18 1 
2 18 28 2 
3 28 29 1 
4 8 9 1 
5 16 17 1 
6 16 29 2 
7 29 30 1 
8 2 3 1 
9 1 2 1 
10 23 24 1 
11 7 8 1 
12 4 5 1 
13 5 6 1 
14 19 20 1 
15 20 21 1 
16 22 23 1 
17 11 12 1 
18 10 11 1 
19 26 27 1 
20 25 26 1 
21 13 14 1 
22 14 15 1 
ITEM: TIMESTEP
16500
ITEM: NUMBER OF ENTRIES
22
ITEM: BOX BOUNDS pp pp pp
-1.0000000000000000e+01 1.0000000000000000e+01
-1.0000000000000000e+01 1.0000000000000000e+01
-1.0000000000000000e+01 1.0000000000000000e+01
ITEM: ENTRIES index c_bondedatomid1 c_bondedatomid2 c_btype
1 17 18 1 
2 18 28 2 
3 28 29 1 
4 8 9 1 
5 16 17 1 
6 16 29 2 
7 29 30 1 
8 2 3 1 
9 1 2 1 
10 23 24 1 
11 7 8 1 
12 4 5 1 
13 5 6 1 
14 19 20 1 
15 20 21 1 
16 22 23 1 
17 11 12 1 
18 10 11 1 
19 26 27 1 
20 25 26 1 
21 13 14 1 
22 14 15 1 
ITEM: TIMESTEP
16600
ITEM: NUMBER OF ENTRIES
22
ITEM: BOX BOUNDS pp pp pp
-1.0000000000000000e+01 1.0000000000000000e+01
-1.0000000000000000e+01 1.0000000000000000e+01
-1.0000000000000000e+01 1.0000000000000000e+01
ITEM: ENTRIES index c_bondedatomid1 c_bondedatomid2 c_btype
1 17 18 1 
2 18 28 2 
3 28 29 1 
4 8 9 1 
5 16 17 1 
6 16 29 2 
7 29 30 1 
8 2 3 1 
9 1 2 1 
10 23 24 1 
11 7 8 1 
12 4 5 1 
13 5 6 1 
14 19 20 1 
15 20 21 1 
16 22 23 1 
17 11 12 1 
18 10 11 1 
19 26 27 1 
20 25 26 1 
21 13 14 1 
22 14 15 1 
ITEM: TIMESTEP
16700
ITEM: NUMBER OF ENTRIES
22
ITEM: BOX BOUNDS pp pp pp
-1.0000000000000000e+01 1.0000000000000000e+01
-1.0000000000000000e+01 1.0000000000000000e+01
-1.0000000000000000e+01 1.0000000000000000e+01
ITEM: ENTRIES index c_bondedatomid1 c_bondedatomid2 c_btype
1 17 18 1 
2 18 28 2 
3 28 29 1 
4 8 9 1 
5 16 17 1 
6 16 29 2 
7 29 30 1 
8 2 3 1 
9 1 2 1 
10 23 24 1 
11 7 8 1 
12 4 5 1 
13 5 6 1 
14 19 20 1 
15 20 21 1 
16 22 23 1 
17 11 12 1 
18 10 11 1 
19 26 27 1 
20 25 26 1 
21 13 14 1 
22 14 15 1 
ITEM: TIMESTEP
16800
ITEM: NUMBER OF ENTRIES
22
ITEM: BOX BOUNDS pp pp pp
-1.0000000000000000e+01 1.0000000000000000e+01
-1.0000000000000000e+01 1.0000000000000000e+01
-1.0000000000000000e+01 1.0000000000000000e+01
ITEM: ENTRIES index c_bondedatomid1 c_bondedatomid2 c_btype
1 17 18 1 
2 18 28 2 
3 28 29 1 
4 8 9 1 
5 16 17 1 
6 16 29 2 
7 29 30 1 
8 2 3 1 
9 1 2 1 
10 23 24 1 
11 7 8 1 
12 4 5 1 
13 5 6 1 
14 19 20 1 
15 20 21 1 
16 22 23 1 
17 11 12 1 
18 10 11 1 
19 26 27 1 
20 25 26 1 
21 13 14 1 
22 14 15 1 
ITEM: TIMESTEP
16900
ITEM: NUMBER OF ENTRIES
22
ITEM: BOX BOUNDS pp pp pp
-1.0000000000000000e+01 1.0000000000000000e+01
-1.0000000000000000e+01 1.0000000000000000e+01
-1.0000000000000000e+01 1.0000000000000000e+01
ITEM: ENTRIES index c_bondedatomid1 c_bondedatomid2 c_btype
1 17 18 1 
2 18 28 2 
3 28 29 1 
4 8 9 1 
5 16 17 1 
6 16 29 2 
7 29 30 1 
8 2 3 1 
9 1 2 1 
10 23 24 1 
11 7 8 1 
12 4 5 1 
13 5 6 1 
14 19 20 1 
15 20 21 1 
16 22 23 1 
17 11 12 1 
18 10 11 1 
19 26 27 1 
20 25 26 1 
21 13 14 1 
22 14 15 1 
ITEM: TIMESTEP
17000
ITEM: NUMBER OF ENTRIES
22
ITEM: BOX BOUNDS pp pp pp
-1.0000000000000000e+01 1.0000000000000000e+01
-1.0000000000000000e+01 1.0000000000000000e+01
-1.0000000000000000e+01 1.0000000000000000e+01
ITEM: ENTRIES index c_bondedatomid1 c_bondedatomid2 c_btype
1 17 18 1 
2 18 28 2 
3 28 29 1 
4 8 9 1 
5 16 17 1 
6 16 29 2 
7 29 30 1 
8 2 3 1 
9 1 2 1 
10 23 24 1 
11 7 8 1 
12 4 5 1 
13 5 6 1 
14 19 20 1 
15 20 21 1 
16 22 23 1 
17 11 12 1 
18 10 11 1 
19 26 27 1 
20 25 26 1 
21 13 14 1 
22 14 15 1 
ITEM: TIMESTEP
17100
ITEM: NUMBER OF ENTRIES
22
ITEM: BOX BOUNDS pp pp pp
-1.0000000000000000e+01 1.0000000000000000e+01
-1.0000000000000000e+01 1.0000000000000000e+01
-1.0000000000000000e+01 1.0000000000000000e+01
ITEM: ENTRIES index c_bondedatomid1 c_bondedatomid2 c_btype
1 17 18 1 
2 18 28 2 
3 2 3 1 
4 28 29 1 
5 16 17 1 
6 16 29 2 
7 29 30 1 
8 23 24 1 
9 22 23 1 
10 8 9 1 
11 7 8 1 
12 4 5 1 
13 5 6 1 
14 1 2 1 
15 19 20 1 
16 20 21 1 
17 10 11 1 
18 11 12 1 
19 26 27 1 
20 25 26 1 
21 13 14 1 
22 14 15 1 
ITEM: TIMESTEP
17200
ITEM: NUMBER OF ENTRIES
22
ITEM: BOX BOUNDS pp pp pp
-1.0000000000000000e+01 1.0000000000000000e+01
-1.0000000000000000e+01 1.0000000000000000e+01
-1.0000000000000000e+01 1.0000000000000000e+01
ITEM: ENTRIES index c_bondedatomid1 c_bondedatomid2 c_btype
1 17 18 1 
2 18 28 2 
3 2 3 1 
4 28 29 1 
5 16 17 1 
6 16 29 2 
7 29 30 1 
8 23 24 1 
9 22 23 1 
10 8 9 1 
11 7 8 1 
12 4 5 1 
13 5 6 1 
14 1 2 1 
15 19 20 1 
16 20 21 1 
17 10 11 1 
18 11 12 1 
19 26 27 1 
20 25 26 1 
21 13 14 1 
22 14 15 1 
ITEM: TIMESTEP
17300
ITEM: NUMBER OF ENTRIES
22
ITEM: BOX BOUNDS pp pp pp
-1.0000000000000000e+01 1.0000000000000000e+01
-1.0000000000000000e+01 1.0000000000000000e+01
-1.0000000000000000e+01 1.0000000000000000e+01
ITEM: ENTRIES index c_bondedatomid1 c_bondedatomid2 c_btype
1 17 18 1 
2 18 28 2 
3 2 3 1 
4 28 29 1 
5 16 17 1 
6 16 29 2 
7 29 30 1 
8 23 24 1 
9 22 23 1 
10 8 9 1 
11 7 8 1 
12 4 5 1 
13 5 6 1 
14 1 2 1 
15 19 20 1 
16 20 21 1 
17 10 11 1 
18 11 12 1 
19 26 27 1 
20 25 26 1 
21 13 14 1 
22 14 15 1 
ITEM: TIMESTEP
17400
ITEM: NUMBER OF ENTRIES
22
ITEM: BOX BOUNDS pp pp pp
-1.0000000000000000e+01 1.0000000000000000e+01
-1.0000000000000000e+01 1.0000000000000000e+01
-1.0000000000000000e+01 1.0000000000000000e+01
ITEM: ENTRIES index c_bondedatomid1 c_bondedatomid2 c_btype
1 17 18 1 
2 18 28 2 
3 2 3 1 
4 28 29 1 
5 16 17 1 
6 16 29 2 
7 29 30 1 
8 23 24 1 
9 22 23 1 
10 8 9 1 
11 7 8 1 
12 4 5 1 
13 5 6 1 
14 1 2 1 
15 19 20 1 
16 20 21 1 
17 10 11 1 
18 11 12 1 
19 26 27 1 
20 25 26 1 
21 13 14 1 
22 14 15 1 
ITEM: TIMESTEP
17500
ITEM: NUMBER OF ENTRIES
22
ITEM: BOX BOUNDS pp pp pp
-1.0000000000000000e+01 1.0000000000000000e+01
-1.0000000000000000e+01 1.0000000000000000e+01
-1.0000000000000000e+01 1.0000000000000000e+01
ITEM: ENTRIES index c_bondedatomid1 c_bondedatomid2 c_btype
1 17 18 1 
2 18 28 2 
3 2 3 1 
4 28 29 1 
5 16 17 1 
6 16 29 2 
7 29 30 1 
8 23 24 1 
9 22 23 1 
10 8 9 1 
11 7 8 1 
12 4 5 1 
13 5 6 1 
14 1 2 1 
15 19 20 1 
16 20 21 1 
17 10 11 1 
18 11 12 1 
19 26 27 1 
20 25 26 1 
21 13 14 1 
22 14 15 1 
ITEM: TIMESTEP
17600
ITEM: NUMBER OF ENTRIES
22
ITEM: BOX BOUNDS pp pp pp
-1.0000000000000000e+01 1.0000000000000000e+01
-1.0000000000000000e+01 1.0000000000000000e+01
-1.0000000000000000e+01 1.0000000000000000e+01
ITEM: ENTRIES index c_bondedatomid1 c_bondedatomid2 c_btype
1 17 18 1 
2 18 28 2 
3 2 3 1 
4 28 29 1 
5 16 17 1 
6 16 29 2 
7 29 30 1 
8 23 24 1 
9 22 23 1 
10 8 9 1 
11 7 8 1 
12 4 5 1 
13 5 6 1 
14 1 2 1 
15 19 20 1 
16 20 21 1 
17 10 11 1 
18 11 12 1 
19 26 27 1 
20 25 26 1 
21 13 14 1 
22 14 15 1 
ITEM: TIMESTEP
17700
ITEM: NUMBER OF ENTRIES
22
ITEM: BOX BOUNDS pp pp pp
-1.0000000000000000e+01 1.0000000000000000e+01
-1.0000000000000000e+01 1.0000000000000000e+01
-1.0000000000000000e+01 1.0000000000000000e+01
ITEM: ENTRIES index c_bondedatomid1 c_bondedatomid2 c_btype
1 17 18 1 
2 18 28 2 
3 2 3 1 
4 28 29 1 
5 16 17 1 
6 16 29 2 
7 29 30 1 
8 23 24 1 
9 22 23 1 
10 8 9 1 
11 7 8 1 
12 4 5 1 
13 5 6 1 
14 1 2 1 
15 19 20 1 
16 20 21 1 
17 10 11 1 
18 11 12 1 
19 26 27 1 
20 25 26 1 
21 13 14 1 
22 14 15 1 
ITEM: TIMESTEP
17800
ITEM: NUMBER OF ENTRIES
22
ITEM: BOX BOUNDS pp pp pp
-1.0000000000000000e+01 1.0000000000000000e+01
-1.0000000000000000e+01 1.0000000000000000e+01
-1.0000000000000000e+01 1.0000000000000000e+01
ITEM: ENTRIES index c_bondedatomid1 c_bondedatomid2 c_btype
1 17 18 1 
2 18 28 2 
3 2 3 1 
4 28 29 1 
5 16 17 1 
6 16 29 2 
7 29 30 1 
8 23 24 1 
9 22 23 1 
10 8 9 1 
11 7 8 1 
12 4 5 1 
13 5 6 1 
14 1 2 1 
15 19 20 1 
16 20 21 1 
17 10 11 1 
18 11 12 1 
19 26 27 1 
20 25 26 1 
21 13 14 1 
22 14 15 1 
ITEM: TIMESTEP
17900
ITEM: NUMBER OF ENTRIES
22
ITEM: BOX BOUNDS pp pp pp
-1.0000000000000000e+01 1.0000000000000000e+01
-1.0000000000000000e+01 1.0000000000000000e+01
-1.0000000000000000e+01 1.0000000000000000e+01
ITEM: ENTRIES index c_bondedatomid1 c_bondedatomid2 c_btype
1 17 18 1 
2 18 28 2 
3 2 3 1 
4 28 29 1 
5 16 17 1 
6 16 29 2 
7 29 30 1 
8 23 24 1 
9 22 23 1 
10 8 9 1 
11 7 8 1 
12 4 5 1 
13 5 6 1 
14 1 2 1 
15 19 20 1 
16 20 21 1 
17 10 11 1 
18 11 12 1 
19 26 27 1 
20 25 26 1 
21 13 14 1 
22 14 15 1 
ITEM: TIMESTEP
18000
ITEM: NUMBER OF ENTRIES
22
ITEM: BOX BOUNDS pp pp pp
-1.0000000000000000e+01 1.0000000000000000e+01
-1.0000000000000000e+01 1.0000000000000000e+01
-1.0000000000000000e+01 1.0000000000000000e+01
ITEM: ENTRIES index c_bondedatomid1 c_bondedatomid2 c_btype
1 17 18 1 
2 18 28 2 
3 2 3 1 
4 28 29 1 
5 16 17 1 
6 16 29 2 
7 29 30 1 
8 23 24 1 
9 22 23 1 
10 8 9 1 
11 7 8 1 
12 4 5 1 
13 5 6 1 
14 1 2 1 
15 19 20 1 
16 20 21 1 
17 10 11 1 
18 11 12 1 
19 26 27 1 
20 25 26 1 
21 13 14 1 
22 14 15 1 
ITEM: TIMESTEP
18100
ITEM: NUMBER OF ENTRIES
22
ITEM: BOX BOUNDS pp pp pp
-1.0000000000000000e+01 1.0000000000000000e+01
-1.0000000000000000e+01 1.0000000000000000e+01
-1.0000000000000000e+01 1.0000000000000000e+01
ITEM: ENTRIES index c_bondedatomid1 c_bondedatomid2 c_btype
1 2 3 1 
2 1 2 1 
3 17 18 1 
4 18 28 2 
5 28 29 1 
6 16 17 1 
7 16 29 2 
8 29 30 1 
9 23 24 1 
10 22 23 1 
11 8 9 1 
12 7 8 1 
13 5 6 1 
14 4 5 1 
15 19 20 1 
16 20 21 1 
17 10 11 1 
18 11 12 1 
19 26 27 1 
20 25 26 1 
21 13 14 1 
22 14 15 1 
ITEM: TIMESTEP
18200
ITEM: NUMBER OF ENTRIES
22
ITEM: BOX BOUNDS pp pp pp
-1.0000000000000000e+01 1.0000000000000000e+01
-1.0000000000000000e+01 1.0000000000000000e+01
-1.0000000000000000e+01 1.0000000000000000e+01
ITEM: ENTRIES index c_bondedatomid1 c_bondedatomid2 c_btype
1 2 3 1 
2 1 2 1 
3 17 18 1 
4 18 28 2 
5 28 29 1 
6 16 17 1 
7 16 29 2 
8 29 30 1 
9 23 24 1 
10 22 23 1 
11 8 9 1 
12 7 8 1 
13 5 6 1 
14 4 5 1 
15 19 20 1 
16 20 21 1 
17 10 11 1 
18 11 12 1 
19 26 27 1 
20 25 26 1 
21 13 14 1 
22 14 15 1 
ITEM: TIMESTEP
18300
ITEM: NUMBER OF ENTRIES
22
ITEM: BOX BOUNDS pp pp pp
-1.0000000000000000e+01 1.0000000000000000e+01
-1.0000000000000000e+01 1.0000000000000000e+01
-1.0000000000000000e+01 1.0000000000000000e+01
ITEM: ENTRIES index c_bondedatomid1 c_bondedatomid2 c_btype
1 2 3 1 
2 1 2 1 
3 17 18 1 
4 18 28 2 
5 28 29 1 
6 16 17 1 
7 16 29 2 
8 29 30 1 
9 23 24 1 
10 22 23 1 
11 8 9 1 
12 7 8 1 
13 5 6 1 
14 4 5 1 
15 19 20 1 
16 20 21 1 
17 10 11 1 
18 11 12 1 
19 26 27 1 
20 25 26 1 
21 13 14 1 
22 14 15 1 
ITEM: TIMESTEP
18400
ITEM: NUMBER OF ENTRIES
22
ITEM: BOX BOUNDS pp pp pp
-1.0000000000000000e+01 1.0000000000000000e+01
-1.0000000000000000e+01 1.0000000000000000e+01
-1.0000000000000000e+01 1.0000000000000000e+01
ITEM: ENTRIES index c_bondedatomid1 c_bondedatomid2 c_btype
1 2 3 1 
2 1 2 1 
3 17 18 1 
4 18 28 2 
5 28 29 1 
6 16 17 1 
7 16 29 2 
8 29 30 1 
9 23 24 1 
10 22 23 1 
11 8 9 1 
12 7 8 1 
13 5 6 1 
14 4 5 1 
15 19 20 1 
16 20 21 1 
17 10 11 1 
18 11 12 1 
19 26 27 1 
20 25 26 1 
21 13 14 1 
22 14 15 1 
ITEM: TIMESTEP
18500
ITEM: NUMBER OF ENTRIES
22
ITEM: BOX BOUNDS pp pp pp
-1.0000000000000000e+01 1.0000000000000000e+01
-1.0000000000000000e+01 1.0000000000000000e+01
-1.0000000000000000e+01 1.0000000000000000e+01
ITEM: ENTRIES index c_bondedatomid1 c_bondedatomid2 c_btype
1 2 3 1 
2 1 2 1 
3 17 18 1 
4 18 28 2 
5 28 29 1 
6 16 17 1 
7 16 29 2 
8 29 30 1 
9 23 24 1 
10 22 23 1 
11 8 9 1 
12 7 8 1 
13 5 6 1 
14 4 5 1 
15 19 20 1 
16 20 21 1 
17 10 11 1 
18 11 12 1 
19 26 27 1 
20 25 26 1 
21 13 14 1 
22 14 15 1 
ITEM: TIMESTEP
18600
ITEM: NUMBER OF ENTRIES
22
ITEM: BOX BOUNDS pp pp pp
-1.0000000000000000e+01 1.0000000000000000e+01
-1.0000000000000000e+01 1.0000000000000000e+01
-1.0000000000000000e+01 1.0000000000000000e+01
ITEM: ENTRIES index c_bondedatomid1 c_bondedatomid2 c_btype
1 2 3 1 
2 1 2 1 
3 17 18 1 
4 18 28 2 
5 28 29 1 
6 16 17 1 
7 16 29 2 
8 29 30 1 
9 23 24 1 
10 22 23 1 
11 8 9 1 
12 7 8 1 
13 5 6 1 
14 4 5 1 
15 19 20 1 
16 20 21 1 
17 10 11 1 
18 11 12 1 
19 26 27 1 
20 25 26 1 
21 13 14 1 
22 14 15 1 
ITEM: TIMESTEP
18700
ITEM: NUMBER OF ENTRIES
22
ITEM: BOX BOUNDS pp pp pp
-1.0000000000000000e+01 1.0000000000000000e+01
-1.0000000000000000e+01 1.0000000000000000e+01
-1.0000000000000000e+01 1.0000000000000000e+01
ITEM: ENTRIES index c_bondedatomid1 c_bondedatomid2 c_btype
1 2 3 1 
2 1 2 1 
3 17 18 1 
4 18 28 2 
5 28 29 1 
6 16 17 1 
7 16 29 2 
8 29 30 1 
9 23 24 1 
10 22 23 1 
11 8 9 1 
12 7 8 1 
13 5 6 1 
14 4 5 1 
15 19 20 1 
16 20 21 1 
17 10 11 1 
18 11 12 1 
19 26 27 1 
20 25 26 1 
21 13 14 1 
22 14 15 1 
ITEM: TIMESTEP
18800
ITEM: NUMBER OF ENTRIES
22
ITEM: BOX BOUNDS pp pp pp
-1.0000000000000000e+01 1.0000000000000000e+01
-1.0000000000000000e+01 1.0000000000000000e+01
-1.0000000000000000e+01 1.0000000000000000e+01
ITEM: ENTRIES index c_bondedatomid1 c_bondedatomid2 c_btype
1 2 3 1 
2 1 2 1 
3 17 18 1 
4 18 28 2 
5 28 29 1 
6 16 17 1 
7 16 29 2 
8 29 30 1 
9 23 24 1 
10 22 23 1 
11 8 9 1 
12 7 8 1 
13 5 6 1 
14 4 5 1 
15 19 20 1 
16 20 21 1 
17 10 11 1 
18 11 12 1 
19 26 27 1 
20 25 26 1 
21 13 14 1 
22 14 15 1 
ITEM: TIMESTEP
18900
ITEM: NUMBER OF ENTRIES
22
ITEM: BOX BOUNDS pp pp pp
-1.0000000000000000e+01 1.0000000000000000e+01
-1.0000000000000000e+01 1.0000000000000000e+01
-1.0000000000000000e+01 1.0000000000000000e+01
ITEM: ENTRIES index c_bondedatomid1 c_bondedatomid2 c_btype
1 2 3 1 
2 1 2 1 
3 17 18 1 
4 18 28 2 
5 28 29 1 
6 16 17 1 
7 16 29 2 
8 29 30 1 
9 23 24 1 
10 22 23 1 
11 8 9 1 
12 7 8 1 
13 5 6 1 
14 4 5 1 
15 19 20 1 
16 20 21 1 
17 10 11 1 
18 11 12 1 
19 26 27 1 
20 25 26 1 
21 13 14 1 
22 14 15 1 
ITEM: TIMESTEP
19000
ITEM: NUMBER OF ENTRIES
22
ITEM: BOX BOUNDS pp pp pp
-1.0000000000000000e+01 1.0000000000000000e+01
-1.0000000000000000e+01 1.0000000000000000e+01
-1.0000000000000000e+01 1.0000000000000000e+01
ITEM: ENTRIES index c_bondedatomid1 c_bondedatomid2 c_btype
1 2 3 1 
2 1 2 1 
3 17 18 1 
4 18 28 2 
5 28 29 1 
6 16 17 1 
7 16 29 2 
8 29 30 1 
9 23 24 1 
10 22 23 1 
11 8 9 1 
12 7 8 1 
13 5 6 1 
14 4 5 1 
15 19 20 1 
16 20 21 1 
17 10 11 1 
18 11 12 1 
19 26 27 1 
20 25 26 1 
21 13 14 1 
22 14 15 1 
ITEM: TIMESTEP
19100
ITEM: NUMBER OF ENTRIES
22
ITEM: BOX BOUNDS pp pp pp
-1.0000000000000000e+01 1.0000000000000000e+01
-1.0000000000000000e+01 1.0000000000000000e+01
-1.0000000000000000e+01 1.0000000000000000e+01
ITEM: ENTRIES index c_bondedatomid1 c_bondedatomid2 c_btype
1 2 3 1 
2 1 2 1 
3 17 18 1 
4 16 17 1 
5 16 29 2 
6 18 28 2 
7 28 29 1 
8 29 30 1 
9 23 24 1 
10 22 23 1 
11 8 9 1 
12 7 8 1 
13 5 6 1 
14 19 20 1 
15 20 21 1 
16 11 12 1 
17 4 5 1 
18 10 11 1 
19 26 27 1 
20 25 26 1 
21 14 15 1 
22 13 14 1 
ITEM: TIMESTEP
19200
ITEM: NUMBER OF ENTRIES
22
ITEM: BOX BOUNDS pp pp pp
-1.0000000000000000e+01 1.0000000000000000e+01
-1.0000000000000000e+01 1.0000000000000000e+01
-1.0000000000000000e+01 1.0000000000000000e+01
ITEM: ENTRIES index c_bondedatomid1 c_bondedatomid2 c_btype
1 2 3 1 
2 1 2 1 
3 17 18 1 
4 16 17 1 
5 16 29 2 
6 18 28 2 
7 28 29 1 
8 29 30 1 
9 23 24 1 
10 22 23 1 
11 8 9 1 
12 7 8 1 
13 5 6 1 
14 19 20 1 
15 20 21 1 
16 11 12 1 
17 4 5 1 
18 10 11 1 
19 26 27 1 
20 25 26 1 
21 14 15 1 
22 13 14 1 
ITEM: TIMESTEP
19300
ITEM: NUMBER OF ENTRIES
22
ITEM: BOX BOUNDS pp pp pp
-1.0000000000000000e+01 1.0000000000000000e+01
-1.0000000000000000e+01 1.0000000000000000e+01
-1.0000000000000000e+01 1.0000000000000000e+01
ITEM: ENTRIES index c_bondedatomid1 c_bondedatomid2 c_btype
1 2 3 1 
2 1 2 1 
3 17 18 1 
4 16 17 1 
5 16 29 2 
6 18 28 2 
7 28 29 1 
8 29 30 1 
9 23 24 1 
10 22 23 1 
11 8 9 1 
12 7 8 1 
13 5 6 1 
14 19 20 1 
15 20 21 1 
16 11 12 1 
17 4 5 1 
18 10 11 1 
19 26 27 1 
20 25 26 1 
21 14 15 1 
22 13 14 1 
ITEM: TIMESTEP
19400
ITEM: NUMBER OF ENTRIES
22
ITEM: BOX BOUNDS pp pp pp
-1.0000000000000000e+01 1.0000000000000000e+01
-1.0000000000000000e+01 1.0000000000000000e+01
-1.0000000000000000e+01 1.0000000000000000e+01
ITEM: ENTRIES index c_bondedatomid1 c_bondedatomid2 c_btype
1 2 3 1 
2 1 2 1 
3 17 18 1 
4 16 17 1 
5 16 29 2 
6 18 28 2 
7 28 29 1 
8 29 30 1 
9 23 24 1 
10 22 23 1 
11 8 9 1 
12 7 8 1 
13 5 6 1 
14 19 20 1 
15 20 21 1 
16 11 12 1 
17 4 5 1 
18 10 11 1 
19 26 27 1 
20 25 26 1 
21 14 15 1 
22 13 14 1 
ITEM: TIMESTEP
19500
ITEM: NUMBER OF ENTRIES
22
ITEM: BOX BOUNDS pp pp pp
-1.0000000000000000e+01 1.0000000000000000e+01
-1.0000000000000000e+01 1.0000000000000000e+01
-1.0000000000000000e+01 1.0000000000000000e+01
ITEM: ENTRIES index c_bondedatomid1 c_bondedatomid2 c_btype
1 2 3 1 
2 1 2 1 
3 17 18 1 
4 16 17 1 
5 16 29 2 
6 18 28 2 
7 28 29 1 
8 29 30 1 
9 23 24 1 
10 22 23 1 
11 8 9 1 
12 7 8 1 
13 5 6 1 
14 19 20 1 
15 20 21 1 
16 11 12 1 
17 4 5 1 
18 10 11 1 
19 26 27 1 
20 25 26 1 
21 14 15 1 
22 13 14 1 
ITEM: TIMESTEP
19600
ITEM: NUMBER OF ENTRIES
22
ITEM: BOX BOUNDS pp pp pp
-1.0000000000000000e+01 1.0000000000000000e+01
-1.0000000000000000e+01 1.0000000000000000e+01
-1.0000000000000000e+01 1.0000000000000000e+01
ITEM: ENTRIES index c_bondedatomid1 c_bondedatomid2 c_btype
1 2 3 1 
2 1 2 1 
3 17 18 1 
4 16 17 1 
5 16 29 2 
6 18 28 2 
7 28 29 1 
8 29 30 1 
9 23 24 1 
10 22 23 1 
11 8 9 1 
12 7 8 1 
13 5 6 1 
14 19 20 1 
15 20 21 1 
16 11 12 1 
17 4 5 1 
18 10 11 1 
19 26 27 1 
20 25 26 1 
21 14 15 1 
22 13 14 1 
ITEM: TIMESTEP
19700
ITEM: NUMBER OF ENTRIES
22
ITEM: BOX BOUNDS pp pp pp
-1.0000000000000000e+01 1.0000000000000000e+01
-1.0000000000000000e+01 1.0000000000000000e+01
-1.0000000000000000e+01 1.0000000000000000e+01
ITEM: ENTRIES index c_bondedatomid1 c_bondedatomid2 c_btype
1 2 3 1 
2 1 2 1 
3 17 18 1 
4 16 17 1 
5 16 29 2 
6 18 28 2 
7 28 29 1 
8 29 30 1 
9 23 24 1 
10 22 23 1 
11 8 9 1 
12 7 8 1 
13 5 6 1 
14 19 20 1 
15 20 21 1 
16 11 12 1 
17 4 5 1 
18 10 11 1 
19 26 27 1 
20 25 26 1 
21 14 15 1 
22 13 14 1 
ITEM: TIMESTEP
19800
ITEM: NUMBER OF ENTRIES
22
ITEM: BOX BOUNDS pp pp pp
-1.0000000000000000e+01 1.0000000000000000e+01
-1.0000000000000000e+01 1.0000000000000000e+01
-1.0000000000000000e+01 1.0000000000000000e+01
ITEM: ENTRIES index c_bondedatomid1 c_bondedatomid2 c_btype
1 2 3 1 
2 1 2 1 
3 17 18 1 
4 16 17 1 
5 16 29 2 
6 18 28 2 
7 28 29 1 
8 29 30 1 
9 23 24 1 
10 22 23 1 
11 8 9 1 
12 7 8 1 
13 5 6 1 
14 19 20 1 
15 20 21 1 
16 11 12 1 
17 4 5 1 
18 10 11 1 
19 26 27 1 
20 25 26 1 
21 14 15 1 
22 13 14 1 
ITEM: TIMESTEP
19900
ITEM: NUMBER OF ENTRIES
22
ITEM: BOX BOUNDS pp pp pp
-1.0000000000000000e+01 1.0000000000000000e+01
-1.0000000000000000e+01 1.0000000000000000e+01
-1.0000000000000000e+01 1.0000000000000000e+01
ITEM: ENTRIES index c_bondedatomid1 c_bondedatomid2 c_btype
1 2 3 1 
2 1 2 1 
3 17 18 1 
4 16 17 1 
5 16 29 2 
6 18 28 2 
7 28 29 1 
8 29 30 1 
9 23 24 1 
10 22 23 1 
11 8 9 1 
12 7 8 1 
13 5 6 1 
14 19 20 1 
15 20 21 1 
16 11 12 1 
17 4 5 1 
18 10 11 1 
19 26 27 1 
20 25 26 1 
21 14 15 1 
22 13 14 1 
ITEM: TIMESTEP
20000
ITEM: NUMBER OF ENTRIES
22
ITEM: BOX BOUNDS pp pp pp
-1.0000000000000000e+01 1.0000000000000000e+01
-1.0000000000000000e+01 1.0000000000000000e+01
-1.0000000000000000e+01 1.0000000000000000e+01
ITEM: ENTRIES index c_bondedatomid1 c_bondedatomid2 c_btype
1 2 3 1 
2 1 2 1 
3 17 18 1 
4 16 17 1 
5 16 29 2 
6 18 28 2 
7 28 29 1 
8 29 30 1 
9 23 24 1 
10 22 23 1 
11 8 9 1 
12 7 8 1 
13 5 6 1 
14 19 20 1 
15 20 21 1 
16 11 12 1 
17 4 5 1 
18 10 11 1 
19 26 27 1 
20 25 26 1 
21 14 15 1 
22 13 14 1 
ITEM: TIMESTEP
20100
ITEM: NUMBER OF ENTRIES
22
ITEM: BOX BOUNDS pp pp pp
-1.0000000000000000e+01 1.0000000000000000e+01
-1.0000000000000000e+01 1.0000000000000000e+01
-1.0000000000000000e+01 1.0000000000000000e+01
ITEM: ENTRIES index c_bondedatomid1 c_bondedatomid2 c_btype
1 2 3 1 
2 1 2 1 
3 17 18 1 
4 16 17 1 
5 16 29 2 
6 18 28 2 
7 28 29 1 
8 29 30 1 
9 23 24 1 
10 22 23 1 
11 8 9 1 
12 7 8 1 
13 5 6 1 
14 19 20 1 
15 20 21 1 
16 11 12 1 
17 4 5 1 
18 10 11 1 
19 26 27 1 
20 25 26 1 
21 14 15 1 
22 13 14 1 
ITEM: TIMESTEP
20200
ITEM: NUMBER OF ENTRIES
22
ITEM: BOX BOUNDS pp pp pp
-1.0000000000000000e+01 1.0000000000000000e+01
-1.0000000000000000e+01 1.0000000000000000e+01
-1.0000000000000000e+01 1.0000000000000000e+01
ITEM: ENTRIES index c_bondedatomid1 c_bondedatomid2 c_btype
1 2 3 1 
2 1 2 1 
3 17 18 1 
4 16 17 1 
5 16 29 2 
6 18 28 2 
7 28 29 1 
8 29 30 1 
9 23 24 1 
10 22 23 1 
11 8 9 1 
12 7 8 1 
13 5 6 1 
14 19 20 1 
15 20 21 1 
16 4 5 1 
17 10 11 1 
18 11 12 1 
19 25 26 1 
20 26 27 1 
21 14 15 1 
22 13 14 1 
ITEM: TIMESTEP
20300
ITEM: NUMBER OF ENTRIES
22
ITEM: BOX BOUNDS pp pp pp
-1.0000000000000000e+01 1.0000000000000000e+01
-1.0000000000000000e+01 1.0000000000000000e+01
-1.0000000000000000e+01 1.0000000000000000e+01
ITEM: ENTRIES index c_bondedatomid1 c_bondedatomid2 c_btype
1 2 3 1 
2 1 2 1 
3 17 18 1 
4 16 17 1 
5 16 29 2 
6 18 28 2 
7 28 29 1 
8 29 30 1 
9 23 24 1 
10 22 23 1 
11 8 9 1 
12 7 8 1 
13 5 6 1 
14 19 20 1 
15 20 21 1 
16 4 5 1 
17 10 11 1 
18 11 12 1 
19 25 26 1 
20 26 27 1 
21 14 15 1 
22 13 14 1 
ITEM: TIMESTEP
20400
ITEM: NUMBER OF ENTRIES
23
ITEM: BOX BOUNDS pp pp pp
-1.0000000000000000e+01 1.0000000000000000e+01
-1.0000000000000000e+01 1.0000000000000000e+01
-1.0000000000000000e+01 1.0000000000000000e+01
ITEM: ENTRIES index c_bondedatomid1 c_bondedatomid2 c_btype
1 2 3 1 
2 1 2 1 
3 17 18 1 
4 16 17 1 
5 16 29 2 
6 16 19 2 
7 18 28 2 
8 28 29 1 
9 29 30 1 
10 23 24 1 
11 22 23 1 
12 8 9 1 
13 7 8 1 
14 5 6 1 
15 19 20 1 
16 20 21 1 
17 4 5 1 
18 10 11 1 
19 11 12 1 
20 25 26 1 
21 26 27 1 
22 14 15 1 
23 13 14 1 
ITEM: TIMESTEP
20500
ITEM: NUMBER OF ENTRIES
23
ITEM: BOX BOUNDS pp pp pp
-1.0000000000000000e+01 1.0000000000000000e+01
-1.0000000000000000e+01 1.0000000000000000e+01
-1.0000000000000000e+01 1.0000000000000000e+01
ITEM: ENTRIES index c_bondedatomid1 c_bondedatomid2 c_btype
1 2 3 1 
2 1 2 1 
3 17 18 1 
4 16 17 1 
5 16 29 2 
6 16 19 2 
7 18 28 2 
8 28 29 1 
9 29 30 1 
10 23 24 1 
11 22 23 1 
12 8 9 1 
13 7 8 1 
14 5 6 1 
15 19 20 1 
16 20 21 1 
17 4 5 1 
18 10 11 1 
19 11 12 1 
20 25 26 1 
21 26 27 1 
22 14 15 1 
23 13 14 1 
ITEM: TIMESTEP
20600
ITEM: NUMBER OF ENTRIES
23
ITEM: BOX BOUNDS pp pp pp
-1.0000000000000000e+01 1.0000000000000000e+01
-1.0000000000000000e+01 1.0000000000000000e+01
-1.0000000000000000e+01 1.0000000000000000e+01
ITEM: ENTRIES index c_bondedatomid1 c_bondedatomid2 c_btype
1 2 3 1 
2 1 2 1 
3 17 18 1 
4 16 17 1 
5 16 29 2 
6 16 19 2 
7 18 28 2 
8 28 29 1 
9 29 30 1 
10 23 24 1 
11 22 23 1 
12 8 9 1 
13 7 8 1 
14 5 6 1 
15 19 20 1 
16 20 21 1 
17 4 5 1 
18 10 11 1 
19 11 12 1 
20 25 26 1 
21 26 27 1 
22 14 15 1 
23 13 14 1 
ITEM: TIMESTEP
20700
ITEM: NUMBER OF ENTRIES
23
ITEM: BOX BOUNDS pp pp pp
-1.0000000000000000e+01 1.0000000000000000e+01
-1.0000000000000000e+01 1.0000000000000000e+01
-1.0000000000000000e+01 1.0000000000000000e+01
ITEM: ENTRIES index c_bondedatomid1 c_bondedatomid2 c_btype
1 2 3 1 
2 1 2 1 
3 17 18 1 
4 16 17 1 
5 16 29 2 
6 16 19 2 
7 18 28 2 
8 28 29 1 
9 29 30 1 
10 23 24 1 
11 22 23 1 
12 8 9 1 
13 7 8 1 
14 5 6 1 
15 19 20 1 
16 20 21 1 
17 4 5 1 
18 10 11 1 
19 11 12 1 
20 25 26 1 
21 26 27 1 
22 14 15 1 
23 13 14 1 
ITEM: TIMESTEP
20800
ITEM: NUMBER OF ENTRIES
23
ITEM: BOX BOUNDS pp pp pp
-1.0000000000000000e+01 1.0000000000000000e+01
-1.0000000000000000e+01 1.0000000000000000e+01
-1.0000000000000000e+01 1.0000000000000000e+01
ITEM: ENTRIES index c_bondedatomid1 c_bondedatomid2 c_btype
1 2 3 1 
2 1 2 1 
3 17 18 1 
4 16 17 1 
5 16 29 2 
6 16 19 2 
7 18 28 2 
8 28 29 1 
9 29 30 1 
10 23 24 1 
11 22 23 1 
12 8 9 1 
13 7 8 1 
14 5 6 1 
15 19 20 1 
16 20 21 1 
17 4 5 1 
18 10 11 1 
19 11 12 1 
20 25 26 1 
21 26 27 1 
22 14 15 1 
23 13 14 1 
ITEM: TIMESTEP
20900
ITEM: NUMBER OF ENTRIES
23
ITEM: BOX BOUNDS pp pp pp
-1.0000000000000000e+01 1.0000000000000000e+01
-1.0000000000000000e+01 1.0000000000000000e+01
-1.0000000000000000e+01 1.0000000000000000e+01
ITEM: ENTRIES index c_bondedatomid1 c_bondedatomid2 c_btype
1 2 3 1 
2 1 2 1 
3 17 18 1 
4 16 17 1 
5 16 29 2 
6 16 19 2 
7 18 28 2 
8 28 29 1 
9 29 30 1 
10 23 24 1 
11 22 23 1 
12 8 9 1 
13 7 8 1 
14 5 6 1 
15 19 20 1 
16 20 21 1 
17 4 5 1 
18 10 11 1 
19 11 12 1 
20 25 26 1 
21 26 27 1 
22 14 15 1 
23 13 14 1 
ITEM: TIMESTEP
21000
ITEM: NUMBER OF ENTRIES
23
ITEM: BOX BOUNDS pp pp pp
-1.0000000000000000e+01 1.0000000000000000e+01
-1.0000000000000000e+01 1.0000000000000000e+01
-1.0000000000000000e+01 1.0000000000000000e+01
ITEM: ENTRIES index c_bondedatomid1 c_bondedatomid2 c_btype
1 2 3 1 
2 1 2 1 
3 17 18 1 
4 16 17 1 
5 16 29 2 
6 16 19 2 
7 18 28 2 
8 28 29 1 
9 29 30 1 
10 23 24 1 
11 22 23 1 
12 8 9 1 
13 7 8 1 
14 5 6 1 
15 19 20 1 
16 20 21 1 
17 4 5 1 
18 10 11 1 
19 11 12 1 
20 25 26 1 
21 26 27 1 
22 14 15 1 
23 13 14 1 
ITEM: TIMESTEP
21100
ITEM: NUMBER OF ENTRIES
23
ITEM: BOX BOUNDS pp pp pp
-1.0000000000000000e+01 1.0000000000000000e+01
-1.0000000000000000e+01 1.0000000000000000e+01
-1.0000000000000000e+01 1.0000000000000000e+01
ITEM: ENTRIES index c_bondedatomid1 c_bondedatomid2 c_btype
1 2 3 1 
2 1 2 1 
3 17 18 1 
4 18 28 2 
5 16 17 1 
6 16 29 2 
7 16 19 2 
8 29 30 1 
9 28 29 1 
10 19 20 1 
11 23 24 1 
12 7 8 1 
13 8 9 1 
14 4 5 1 
15 22 23 1 
16 20 21 1 
17 10 11 1 
18 11 12 1 
19 5 6 1 
20 25 26 1 
21 26 27 1 
22 14 15 1 
23 13 14 1 
ITEM: TIMESTEP
21200
ITEM: NUMBER OF ENTRIES
23
ITEM: BOX BOUNDS pp pp pp
-1.0000000000000000e+01 1.0000000000000000e+01
-1.0000000000000000e+01 1.0000000000000000e+01
-1.0000000000000000e+01 1.0000000000000000e+01
ITEM: ENTRIES index c_bondedatomid1 c_bondedatomid2 c_btype
1 2 3 1 
2 1 2 1 
3 17 18 1 
4 18 28 2 
5 16 17 1 
6 16 29 2 
7 16 19 2 
8 29 30 1 
9 28 29 1 
10 19 20 1 
11 23 24 1 
12 7 8 1 
13 8 9 1 
14 4 5 1 
15 22 23 1 
16 20 21 1 
17 10 11 1 
18 11 12 1 
19 5 6 1 
20 25 26 1 
21 26 27 1 
22 14 15 1 
23 13 14 1 
ITEM: TIMESTEP
21300
ITEM: NUMBER OF ENTRIES
23
ITEM: BOX BOUNDS pp pp pp
-1.0000000000000000e+01 1.0000000000000000e+01
-1.0000000000000000e+01 1.0000000000000000e+01
-1.0000000000000000e+01 1.0000000000000000e+01
ITEM: ENTRIES index c_bondedatomid1 c_bondedatomid2 c_btype
1 2 3 1 
2 1 2 1 
3 17 18 1 
4 18 28 2 
5 16 17 1 
6 16 29 2 
7 16 19 2 
8 29 30 1 
9 28 29 1 
10 19 20 1 
11 23 24 1 
12 7 8 1 
13 8 9 1 
14 4 5 1 
15 22 23 1 
16 20 21 1 
17 10 11 1 
18 11 12 1 
19 5 6 1 
20 25 26 1 
21 26 27 1 
22 14 15 1 
23 13 14 1 
ITEM: TIMESTEP
21400
ITEM: NUMBER OF ENTRIES
23
ITEM: BOX BOUNDS pp pp pp
-1.0000000000000000e+01 1.0000000000000000e+01
-1.0000000000000000e+01 1.0000000000000000e+01
-1.0000000000000000e+01 1.0000000000000000e+01
ITEM: ENTRIES index c_bondedatomid1 c_bondedatomid2 c_btype
1 2 3 1 
2 1 2 1 
3 17 18 1 
4 18 28 2 
5 16 17 1 
6 16 29 2 
7 16 19 2 
8 29 30 1 
9 28 29 1 
10 19 20 1 
11 23 24 1 
12 7 8 1 
13 8 9 1 
14 4 5 1 
15 22 23 1 
16 20 21 1 
17 10 11 1 
18 11 12 1 
19 5 6 1 
20 25 26 1 
21 26 27 1 
22 14 15 1 
23 13 14 1 
ITEM: TIMESTEP
21500
ITEM: NUMBER OF ENTRIES
23
ITEM: BOX BOUNDS pp pp pp
-1.0000000000000000e+01 1.0000000000000000e+01
-1.0000000000000000e+01 1.0000000000000000e+01
-1.0000000000000000e+01 1.0000000000000000e+01
ITEM: ENTRIES index c_bondedatomid1 c_bondedatomid2 c_btype
1 2 3 1 
2 1 2 1 
3 17 18 1 
4 18 28 2 
5 16 17 1 
6 16 29 2 
7 16 19 2 
8 29 30 1 
9 28 29 1 
10 19 20 1 
11 23 24 1 
12 7 8 1 
13 8 9 1 
14 4 5 1 
15 22 23 1 
16 20 21 1 
17 10 11 1 
18 11 12 1 
19 5 6 1 
20 25 26 1 
21 26 27 1 
22 14 15 1 
23 13 14 1 
ITEM: TIMESTEP
21600
ITEM: NUMBER OF ENTRIES
23
ITEM: BOX BOUNDS pp pp pp
-1.0000000000000000e+01 1.0000000000000000e+01
-1.0000000000000000e+01 1.0000000000000000e+01
-1.0000000000000000e+01 1.0000000000000000e+01
ITEM: ENTRIES index c_bondedatomid1 c_bondedatomid2 c_btype
1 2 3 1 
2 1 2 1 
3 17 18 1 
4 18 28 2 
5 16 17 1 
6 16 29 2 
7 16 19 2 
8 29 30 1 
9 28 29 1 
10 19 20 1 
11 23 24 1 
12 7 8 1 
13 8 9 1 
14 4 5 1 
15 22 23 1 
16 20 21 1 
17 10 11 1 
18 11 12 1 
19 5 6 1 
20 25 26 1 
21 26 27 1 
22 14 15 1 
23 13 14 1 
ITEM: TIMESTEP
21700
ITEM: NUMBER OF ENTRIES
23
ITEM: BOX BOUNDS pp pp pp
-1.0000000000000000e+01 1.0000000000000000e+01
-1.0000000000000000e+01 1.0000000000000000e+01
-1.0000000000000000e+01 1.0000000000000000e+01
ITEM: ENTRIES index c_bondedatomid1 c_bondedatomid2 c_btype
1 2 3 1 
2 1 2 1 
3 17 18 1 
4 18 28 2 
5 16 17 1 
6 16 29 2 
7 16 19 2 
8 29 30 1 
9 28 29 1 
10 19 20 1 
11 23 24 1 
12 7 8 1 
13 8 9 1 
14 4 5 1 
15 22 23 1 
16 20 21 1 
17 10 11 1 
18 11 12 1 
19 5 6 1 
20 25 26 1 
21 26 27 1 
22 14 15 1 
23 13 14 1 
ITEM: TIMESTEP
21800
ITEM: NUMBER OF ENTRIES
23
ITEM: BOX BOUNDS pp pp pp
-1.0000000000000000e+01 1.0000000000000000e+01
-1.0000000000000000e+01 1.0000000000000000e+01
-1.0000000000000000e+01 1.0000000000000000e+01
ITEM: ENTRIES index c_bondedatomid1 c_bondedatomid2 c_btype
1 2 3 1 
2 1 2 1 
3 17 18 1 
4 18 28 2 
5 16 17 1 
6 16 29 2 
7 16 19 2 
8 29 30 1 
9 28 29 1 
10 19 20 1 
11 23 24 1 
12 7 8 1 
13 8 9 1 
14 4 5 1 
15 22 23 1 
16 20 21 1 
17 10 11 1 
18 11 12 1 
19 5 6 1 
20 25 26 1 
21 26 27 1 
22 14 15 1 
23 13 14 1 
ITEM: TIMESTEP
21900
ITEM: NUMBER OF ENTRIES
23
ITEM: BOX BOUNDS pp pp pp
-1.0000000000000000e+01 1.0000000000000000e+01
-1.0000000000000000e+01 1.0000000000000000e+01
-1.0000000000000000e+01 1.0000000000000000e+01
ITEM: ENTRIES index c_bondedatomid1 c_bondedatomid2 c_btype
1 2 3 1 
2 1 2 1 
3 17 18 1 
4 18 28 2 
5 16 17 1 
6 16 29 2 
7 16 19 2 
8 29 30 1 
9 28 29 1 
10 19 20 1 
11 23 24 1 
12 7 8 1 
13 8 9 1 
14 4 5 1 
15 22 23 1 
16 20 21 1 
17 10 11 1 
18 11 12 1 
19 5 6 1 
20 25 26 1 
21 26 27 1 
22 14 15 1 
23 13 14 1 
ITEM: TIMESTEP
22000
ITEM: NUMBER OF ENTRIES
23
ITEM: BOX BOUNDS pp pp pp
-1.0000000000000000e+01 1.0000000000000000e+01
-1.0000000000000000e+01 1.0000000000000000e+01
-1.0000000000000000e+01 1.0000000000000000e+01
ITEM: ENTRIES index c_bondedatomid1 c_bondedatomid2 c_btype
1 2 3 1 
2 1 2 1 
3 17 18 1 
4 18 28 2 
5 16 17 1 
6 16 29 2 
7 16 19 2 
8 29 30 1 
9 28 29 1 
10 19 20 1 
11 23 24 1 
12 7 8 1 
13 8 9 1 
14 4 5 1 
15 22 23 1 
16 20 21 1 
17 10 11 1 
18 11 12 1 
19 5 6 1 
20 25 26 1 
21 26 27 1 
22 14 15 1 
23 13 14 1 
ITEM: TIMESTEP
22100
ITEM: NUMBER OF ENTRIES
23
ITEM: BOX BOUNDS pp pp pp
-1.0000000000000000e+01 1.0000000000000000e+01
-1.0000000000000000e+01 1.0000000000000000e+01
-1.0000000000000000e+01 1.0000000000000000e+01
ITEM: ENTRIES index c_bondedatomid1 c_bondedatomid2 c_btype
1 2 3 1 
2 1 2 1 
3 17 18 1 
4 18 28 2 
5 16 17 1 
6 16 29 2 
7 16 19 2 
8 29 30 1 
9 28 29 1 
10 19 20 1 
11 20 21 1 
12 7 8 1 
13 8 9 1 
14 23 24 1 
15 22 23 1 
16 11 12 1 
17 4 5 1 
18 5 6 1 
19 10 11 1 
20 25 26 1 
21 26 27 1 
22 14 15 1 
23 13 14 1 
ITEM: TIMESTEP
22200
ITEM: NUMBER OF ENTRIES
23
ITEM: BOX BOUNDS pp pp pp
-1.0000000000000000e+01 1.0000000000000000e+01
-1.0000000000000000e+01 1.0000000000000000e+01
-1.0000000000000000e+01 1.0000000000000000e+01
ITEM: ENTRIES index c_bondedatomid1 c_bondedatomid2 c_btype
1 2 3 1 
2 1 2 1 
3 17 18 1 
4 18 28 2 
5 16 17 1 
6 16 29 2 
7 16 19 2 
8 29 30 1 
9 28 29 1 
10 19 20 1 
11 20 21 1 
12 7 8 1 
13 8 9 1 
14 23 24 1 
15 22 23 1 
16 11 12 1 
17 4 5 1 
18 5 6 1 
19 10 11 1 
20 25 26 1 
21 26 27 1 
22 14 15 1 
23 13 14 1 
ITEM: TIMESTEP
22300
ITEM: NUMBER OF ENTRIES
23
ITEM: BOX BOUNDS pp pp pp
-1.0000000000000000e+01 1.0000000000000000e+01
-1.0000000000000000e+01 1.0000000000000000e+01
-1.0000000000000000e+01 1.0000000000000000e+01
ITEM: ENTRIES index c_bondedatomid1 c_bondedatomid2 c_btype
1 2 3 1 
2 1 2 1 
3 17 18 1 
4 18 28 2 
5 16 17 1 
6 16 29 2 
7 16 19 2 
8 29 30 1 
9 28 29 1 
10 19 20 1 
11 20 21 1 
12 7 8 1 
13 8 9 1 
14 23 24 1 
15 22 23 1 
16 11 12 1 
17 4 5 1 
18 5 6 1 
19 10 11 1 
20 25 26 1 
21 26 27 1 
22 14 15 1 
23 13 14 1 
ITEM: TIMESTEP
22400
ITEM: NUMBER OF ENTRIES
23
ITEM: BOX BOUNDS pp pp pp
-1.0000000000000000e+01 1.0000000000000000e+01
-1.0000000000000000e+01 1.0000000000000000e+01
-1.0000000000000000e+01 1.0000000000000000e+01
ITEM: ENTRIES index c_bondedatomid1 c_bondedatomid2 c_btype
1 2 3 1 
2 1 2 1 
3 17 18 1 
4 18 28 2 
5 16 17 1 
6 16 29 2 
7 16 19 2 
8 29 30 1 
9 28 29 1 
10 19 20 1 
11 20 21 1 
12 7 8 1 
13 8 9 1 
14 23 24 1 
15 22 23 1 
16 11 12 1 
17 4 5 1 
18 5 6 1 
19 10 11 1 
20 25 26 1 
21 26 27 1 
22 14 15 1 
23 13 14 1 
ITEM: TIMESTEP
22500
ITEM: NUMBER OF ENTRIES
23
ITEM: BOX BOUNDS pp pp pp
-1.0000000000000000e+01 1.0000000000000000e+01
-1.0000000000000000e+01 1.0000000000000000e+01
-1.0000000000000000e+01 1.0000000000000000e+01
ITEM: ENTRIES index c_bondedatomid1 c_bondedatomid2 c_btype
1 2 3 1 
2 1 2 1 
3 17 18 1 
4 18 28 2 
5 16 17 1 
6 16 29 2 
7 16 19 2 
8 29 30 1 
9 28 29 1 
10 19 20 1 
11 20 21 1 
12 7 8 1 
13 8 9 1 
14 23 24 1 
15 22 23 1 
16 11 12 1 
17 4 5 1 
18 5 6 1 
19 10 11 1 
20 25 26 1 
21 26 27 1 
22 14 15 1 
23 13 14 1 
ITEM: TIMESTEP
22600
ITEM: NUMBER OF ENTRIES
23
ITEM: BOX BOUNDS pp pp pp
-1.0000000000000000e+01 1.0000000000000000e+01
-1.0000000000000000e+01 1.0000000000000000e+01
-1.0000000000000000e+01 1.0000000000000000e+01
ITEM: ENTRIES index c_bondedatomid1 c_bondedatomid2 c_btype
1 2 3 1 
2 1 2 1 
3 17 18 1 
4 18 28 2 
5 16 17 1 
6 16 29 2 
7 16 19 2 
8 29 30 1 
9 28 29 1 
10 19 20 1 
11 20 21 1 
12 7 8 1 
13 8 9 1 
14 23 24 1 
15 22 23 1 
16 11 12 1 
17 4 5 1 
18 5 6 1 
19 10 11 1 
20 25 26 1 
21 26 27 1 
22 14 15 1 
23 13 14 1 
ITEM: TIMESTEP
22700
ITEM: NUMBER OF ENTRIES
23
ITEM: BOX BOUNDS pp pp pp
-1.0000000000000000e+01 1.0000000000000000e+01
-1.0000000000000000e+01 1.0000000000000000e+01
-1.0000000000000000e+01 1.0000000000000000e+01
ITEM: ENTRIES index c_bondedatomid1 c_bondedatomid2 c_btype
1 2 3 1 
2 1 2 1 
3 17 18 1 
4 18 28 2 
5 16 17 1 
6 16 29 2 
7 16 19 2 
8 29 30 1 
9 28 29 1 
10 19 20 1 
11 20 21 1 
12 7 8 1 
13 8 9 1 
14 23 24 1 
15 22 23 1 
16 11 12 1 
17 4 5 1 
18 5 6 1 
19 10 11 1 
20 25 26 1 
21 26 27 1 
22 14 15 1 
23 13 14 1 
ITEM: TIMESTEP
22800
ITEM: NUMBER OF ENTRIES
23
ITEM: BOX BOUNDS pp pp pp
-1.0000000000000000e+01 1.0000000000000000e+01
-1.0000000000000000e+01 1.0000000000000000e+01
-1.0000000000000000e+01 1.0000000000000000e+01
ITEM: ENTRIES index c_bondedatomid1 c_bondedatomid2 c_btype
1 2 3 1 
2 1 2 1 
3 17 18 1 
4 18 28 2 
5 16 17 1 
6 16 29 2 
7 16 19 2 
8 29 30 1 
9 28 29 1 
10 19 20 1 
11 20 21 1 
12 7 8 1 
13 8 9 1 
14 23 24 1 
15 22 23 1 
16 11 12 1 
17 4 5 1 
18 5 6 1 
19 10 11 1 
20 25 26 1 
21 26 27 1 
22 14 15 1 
23 13 14 1 
ITEM: TIMESTEP
22900
ITEM: NUMBER OF ENTRIES
23
ITEM: BOX BOUNDS pp pp pp
-1.0000000000000000e+01 1.0000000000000000e+01
-1.0000000000000000e+01 1.0000000000000000e+01
-1.0000000000000000e+01 1.0000000000000000e+01
ITEM: ENTRIES index c_bondedatomid1 c_bondedatomid2 c_btype
1 2 3 1 
2 1 2 1 
3 17 18 1 
4 18 28 2 
5 16 17 1 
6 16 29 2 
7 16 19 2 
8 29 30 1 
9 28 29 1 
10 19 20 1 
11 20 21 1 
12 7 8 1 
13 8 9 1 
14 23 24 1 
15 22 23 1 
16 11 12 1 
17 4 5 1 
18 5 6 1 
19 10 11 1 
20 25 26 1 
21 26 27 1 
22 14 15 1 
23 13 14 1 
ITEM: TIMESTEP
23000
ITEM: NUMBER OF ENTRIES
23
ITEM: BOX BOUNDS pp pp pp
-1.0000000000000000e+01 1.0000000000000000e+01
-1.0000000000000000e+01 1.0000000000000000e+01
-1.0000000000000000e+01 1.0000000000000000e+01
ITEM: ENTRIES index c_bondedatomid1 c_bondedatomid2 c_btype
1 2 3 1 
2 1 2 1 
3 17 18 1 
4 18 28 2 
5 16 17 1 
6 16 29 2 
7 16 19 2 
8 29 30 1 
9 28 29 1 
10 19 20 1 
11 20 21 1 
12 7 8 1 
13 8 9 1 
14 23 24 1 
15 22 23 1 
16 11 12 1 
17 4 5 1 
18 5 6 1 
19 10 11 1 
20 25 26 1 
21 26 27 1 
22 14 15 1 
23 13 14 1 
ITEM: TIMESTEP
23100
ITEM: NUMBER OF ENTRIES
23
ITEM: BOX BOUNDS pp pp pp
-1.0000000000000000e+01 1.0000000000000000e+01
-1.0000000000000000e+01 1.0000000000000000e+01
-1.0000000000000000e+01 1.0000000000000000e+01
ITEM: ENTRIES index c_bondedatomid1 c_bondedatomid2 c_btype
1 1 2 1 
2 2 3 1 
3 17 18 1 
4 18 28 2 
5 28 29 1 
6 19 20 1 
7 16 17 1 
8 16 29 2 
9 16 19 2 
10 29 30 1 
11 20 21 1 
12 22 23 1 
13 7 8 1 
14 8 9 1 
15 23 24 1 
16 4 5 1 
17 5 6 1 
18 26 27 1 
19 11 12 1 
20 10 11 1 
21 14 15 1 
22 25 26 1 
23 13 14 1 
ITEM: TIMESTEP
23200
ITEM: NUMBER OF ENTRIES
23
ITEM: BOX BOUNDS pp pp pp
-1.0000000000000000e+01 1.0000000000000000e+01
-1.0000000000000000e+01 1.0000000000000000e+01
-1.0000000000000000e+01 1.0000000000000000e+01
ITEM: ENTRIES index c_bondedatomid1 c_bondedatomid2 c_btype
1 1 2 1 
2 2 3 1 
3 17 18 1 
4 18 28 2 
5 28 29 1 
6 19 20 1 
7 16 17 1 
8 16 29 2 
9 16 19 2 
10 29 30 1 
11 20 21 1 
12 22 23 1 
13 7 8 1 
14 8 9 1 
15 23 24 1 
16 4 5 1 
17 5 6 1 
18 26 27 1 
19 11 12 1 
20 10 11 1 
21 14 15 1 
22 25 26 1 
23 13 14 1 
ITEM: TIMESTEP
23300
ITEM: NUMBER OF ENTRIES
23
ITEM: BOX BOUNDS pp pp pp
-1.0000000000000000e+01 1.0000000000000000e+01
-1.0000000000000000e+01 1.0000000000000000e+01
-1.0000000000000000e+01 1.0000000000000000e+01
ITEM: ENTRIES index c_bondedatomid1 c_bondedatomid2 c_btype
1 1 2 1 
2 2 3 1 
3 17 18 1 
4 18 28 2 
5 28 29 1 
6 19 20 1 
7 16 17 1 
8 16 29 2 
9 16 19 2 
10 29 30 1 
11 20 21 1 
12 22 23 1 
13 7 8 1 
14 8 9 1 
15 23 24 1 
16 4 5 1 
17 5 6 1 
18 26 27 1 
19 11 12 1 
20 10 11 1 
21 14 15 1 
22 25 26 1 
23 13 14 1 
ITEM: TIMESTEP
23400
ITEM: NUMBER OF ENTRIES
23
ITEM: BOX BOUNDS pp pp pp
-1.0000000000000000e+01 1.0000000000000000e+01
-1.0000000000000000e+01 1.0000000000000000e+01
-1.0000000000000000e+01 1.0000000000000000e+01
ITEM: ENTRIES index c_bondedatomid1 c_bondedatomid2 c_btype
1 1 2 1 
2 2 3 1 
3 17 18 1 
4 18 28 2 
5 28 29 1 
6 19 20 1 
7 16 17 1 
8 16 29 2 
9 16 19 2 
10 29 30 1 
11 20 21 1 
12 22 23 1 
13 7 8 1 
14 8 9 1 
15 23 24 1 
16 4 5 1 
17 5 6 1 
18 26 27 1 
19 11 12 1 
20 10 11 1 
21 14 15 1 
22 25 26 1 
23 13 14 1 
ITEM: TIMESTEP
23500
ITEM: NUMBER OF ENTRIES
23
ITEM: BOX BOUNDS pp pp pp
-1.0000000000000000e+01 1.0000000000000000e+01
-1.0000000000000000e+01 1.0000000000000000e+01
-1.0000000000000000e+01 1.0000000000000000e+01
ITEM: ENTRIES index c_bondedatomid1 c_bondedatomid2 c_btype
1 1 2 1 
2 2 3 1 
3 17 18 1 
4 18 28 2 
5 28 29 1 
6 19 20 1 
7 16 17 1 
8 16 29 2 
9 16 19 2 
10 29 30 1 
11 20 21 1 
12 22 23 1 
13 7 8 1 
14 8 9 1 
15 23 24 1 
16 4 5 1 
17 5 6 1 
18 26 27 1 
19 11 12 1 
20 10 11 1 
21 14 15 1 
22 25 26 1 
23 13 14 1 
ITEM: TIMESTEP
23600
ITEM: NUMBER OF ENTRIES
23
ITEM: BOX BOUNDS pp pp pp
-1.0000000000000000e+01 1.0000000000000000e+01
-1.0000000000000000e+01 1.0000000000000000e+01
-1.0000000000000000e+01 1.0000000000000000e+01
ITEM: ENTRIES index c_bondedatomid1 c_bondedatomid2 c_btype
1 1 2 1 
2 2 3 1 
3 17 18 1 
4 18 28 2 
5 28 29 1 
6 19 20 1 
7 16 17 1 
8 16 29 2 
9 16 19 2 
10 29 30 1 
11 20 21 1 
12 22 23 1 
13 7 8 1 
14 8 9 1 
15 23 24 1 
16 4 5 1 
17 5 6 1 
18 26 27 1 
19 11 12 1 
20 10 11 1 
21 14 15 1 
22 25 26 1 
23 13 14 1 
ITEM: TIMESTEP
23700
ITEM: NUMBER OF ENTRIES
23
ITEM: BOX BOUNDS pp pp pp
-1.0000000000000000e+01 1.0000000000000000e+01
-1.0000000000000000e+01 1.0000000000000000e+01
-1.0000000000000000e+01 1.0000000000000000e+01
ITEM: ENTRIES index c_bondedatomid1 c_bondedatomid2 c_btype
1 1 2 1 
2 2 3 1 
3 17 18 1 
4 18 28 2 
5 28 29 1 
6 19 20 1 
7 16 17 1 
8 16 29 2 
9 16 19 2 
10 29 30 1 
11 20 21 1 
12 22 23 1 
13 7 8 1 
14 8 9 1 
15 23 24 1 
16 4 5 1 
17 5 6 1 
18 26 27 1 
19 11 12 1 
20 10 11 1 
21 14 15 1 
22 25 26 1 
23 13 14 1 
ITEM: TIMESTEP
23800
ITEM: NUMBER OF ENTRIES
23
ITEM: BOX BOUNDS pp pp pp
-1.0000000000000000e+01 1.0000000000000000e+01
-1.0000000000000000e+01 1.0000000000000000e+01
-1.0000000000000000e+01 1.0000000000000000e+01
ITEM: ENTRIES index c_bondedatomid1 c_bondedatomid2 c_btype
1 1 2 1 
2 2 3 1 
3 17 18 1 
4 18 28 2 
5 28 29 1 
6 19 20 1 
7 16 17 1 
8 16 29 2 
9 16 19 2 
10 29 30 1 
11 20 21 1 
12 22 23 1 
13 7 8 1 
14 8 9 1 
15 23 24 1 
16 4 5 1 
17 5 6 1 
18 26 27 1 
19 11 12 1 
20 10 11 1 
21 14 15 1 
22 25 26 1 
23 13 14 1 
ITEM: TIMESTEP
23900
ITEM: NUMBER OF ENTRIES
23
ITEM: BOX BOUNDS pp pp pp
-1.0000000000000000e+01 1.0000000000000000e+01
-1.0000000000000000e+01 1.0000000000000000e+01
-1.0000000000000000e+01 1.0000000000000000e+01
ITEM: ENTRIES index c_bondedatomid1 c_bondedatomid2 c_btype
1 1 2 1 
2 2 3 1 
3 17 18 1 
4 18 28 2 
5 28 29 1 
6 19 20 1 
7 16 17 1 
8 16 29 2 
9 16 19 2 
10 29 30 1 
11 20 21 1 
12 22 23 1 
13 7 8 1 
14 8 9 1 
15 23 24 1 
16 4 5 1 
17 5 6 1 
18 26 27 1 
19 11 12 1 
20 10 11 1 
21 14 15 1 
22 25 26 1 
23 13 14 1 
ITEM: TIMESTEP
24000
ITEM: NUMBER OF ENTRIES
23
ITEM: BOX BOUNDS pp pp pp
-1.0000000000000000e+01 1.0000000000000000e+01
-1.0000000000000000e+01 1.0000000000000000e+01
-1.0000000000000000e+01 1.0000000000000000e+01
ITEM: ENTRIES index c_bondedatomid1 c_bondedatomid2 c_btype
1 1 2 1 
2 2 3 1 
3 17 18 1 
4 18 28 2 
5 28 29 1 
6 19 20 1 
7 16 17 1 
8 16 29 2 
9 16 19 2 
10 29 30 1 
11 20 21 1 
12 22 23 1 
13 7 8 1 
14 8 9 1 
15 23 24 1 
16 4 5 1 
17 5 6 1 
18 26 27 1 
19 11 12 1 
20 10 11 1 
21 14 15 1 
22 25 26 1 
23 13 14 1 
ITEM: TIMESTEP
24100
ITEM: NUMBER OF ENTRIES
23
ITEM: BOX BOUNDS pp pp pp
-1.0000000000000000e+01 1.0000000000000000e+01
-1.0000000000000000e+01 1.0000000000000000e+01
-1.0000000000000000e+01 1.0000000000000000e+01
ITEM: ENTRIES index c_bondedatomid1 c_bondedatomid2 c_btype
1 1 2 1 
2 2 3 1 
3 17 18 1 
4 18 28 2 
5 28 29 1 
6 19 20 1 
7 16 17 1 
8 16 29 2 
9 16 19 2 
10 29 30 1 
11 20 21 1 
12 22 23 1 
13 7 8 1 
14 8 9 1 
15 23 24 1 
16 4 5 1 
17 5 6 1 
18 26 27 1 
19 11 12 1 
20 10 11 1 
21 14 15 1 
22 25 26 1 
23 13 14 1 
ITEM: TIMESTEP
24200
ITEM: NUMBER OF ENTRIES
23
ITEM: BOX BOUNDS pp pp pp
-1.0000000000000000e+01 1.0000000000000000e+01
-1.0000000000000000e+01 1.0000000000000000e+01
-1.0000000000000000e+01 1.0000000000000000e+01
ITEM: ENTRIES index c_bondedatomid1 c_bondedatomid2 c_btype
1 1 2 1 
2 2 3 1 
3 19 20 1 
4 17 18 1 
5 18 28 2 
6 28 29 1 
7 16 17 1 
8 16 29 2 
9 16 19 2 
10 29 30 1 
11 20 21 1 
12 22 23 1 
13 23 24 1 
14 7 8 1 
15 8 9 1 
16 4 5 1 
17 5 6 1 
18 25 26 1 
19 26 27 1 
20 11 12 1 
21 10 11 1 
22 14 15 1 
23 13 14 1 
ITEM: TIMESTEP
24300
ITEM: NUMBER OF ENTRIES
24
ITEM: BOX BOUNDS pp pp pp
-1.0000000000000000e+01 1.0000000000000000e+01
-1.0000000000000000e+01 1.0000000000000000e+01
-1.0000000000000000e+01 1.0000000000000000e+01
ITEM: ENTRIES index c_bondedatomid1 c_bondedatomid2 c_btype
1 1 2 1 
2 2 3 1 
3 19 20 1 
4 17 18 1 
5 18 28 2 
6 28 29 1 
7 21 29 2 
8 16 17 1 
9 16 29 2 
10 16 19 2 
11 29 30 1 
12 20 21 1 
13 22 23 1 
14 23 24 1 
15 7 8 1 
16 8 9 1 
17 4 5 1 
18 5 6 1 
19 25 26 1 
20 26 27 1 
21 11 12 1 
22 10 11 1 
23 14 15 1 
24 13 14 1 
ITEM: TIMESTEP
24400
ITEM: NUMBER OF ENTRIES
24
ITEM: BOX BOUNDS pp pp pp
-1.0000000000000000e+01 1.0000000000000000e+01
-1.0000000000000000e+01 1.0000000000000000e+01
-1.0000000000000000e+01 1.0000000000000000e+01
ITEM: ENTRIES index c_bondedatomid1 c_bondedatomid2 c_btype
1 1 2 1 
2 2 3 1 
3 19 20 1 
4 17 18 1 
5 18 28 2 
6 28 29 1 
7 21 29 2 
8 16 17 1 
9 16 29 2 
10 16 19 2 
11 29 30 1 
12 20 21 1 
13 22 23 1 
14 23 24 1 
15 7 8 1 
16 8 9 1 
17 4 5 1 
18 5 6 1 
19 25 26 1 
20 26 27 1 
21 11 12 1 
22 10 11 1 
23 14 15 1 
24 13 14 1 
ITEM: TIMESTEP
24500
ITEM: NUMBER OF ENTRIES
24
ITEM: BOX BOUNDS pp pp pp
-1.0000000000000000e+01 1.0000000000000000e+01
-1.0000000000000000e+01 1.0000000000000000e+01
-1.0000000000000000e+01 1.0000000000000000e+01
ITEM: ENTRIES index c_bondedatomid1 c_bondedatomid2 c_btype
1 1 2 1 
2 2 3 1 
3 19 20 1 
4 17 18 1 
5 18 28 2 
6 28 29 1 
7 21 29 2 
8 16 17 1 
9 16 29 2 
10 16 19 2 
11 29 30 1 
12 20 21 1 
13 22 23 1 
14 23 24 1 
15 7 8 1 
16 8 9 1 
17 4 5 1 
18 5 6 1 
19 25 26 1 
20 26 27 1 
21 11 12 1 
22 10 11 1 
23 14 15 1 
24 13 14 1 
ITEM: TIMESTEP
24600
ITEM: NUMBER OF ENTRIES
24
ITEM: BOX BOUNDS pp pp pp
-1.0000000000000000e+01 1.0000000000000000e+01
-1.0000000000000000e+01 1.0000000000000000e+01
-1.0000000000000000e+01 1.0000000000000000e+01
ITEM: ENTRIES index c_bondedatomid1 c_bondedatomid2 c_btype
1 1 2 1 
2 2 3 1 
3 19 20 1 
4 17 18 1 
5 18 28 2 
6 28 29 1 
7 21 29 2 
8 16 17 1 
9 16 29 2 
10 16 19 2 
11 29 30 1 
12 20 21 1 
13 22 23 1 
14 23 24 1 
15 7 8 1 
16 8 9 1 
17 4 5 1 
18 5 6 1 
19 25 26 1 
20 26 27 1 
21 11 12 1 
22 10 11 1 
23 14 15 1 
24 13 14 1 
ITEM: TIMESTEP
24700
ITEM: NUMBER OF ENTRIES
24
ITEM: BOX BOUNDS pp pp pp
-1.0000000000000000e+01 1.0000000000000000e+01
-1.0000000000000000e+01 1.0000000000000000e+01
-1.0000000000000000e+01 1.0000000000000000e+01
ITEM: ENTRIES index c_bondedatomid1 c_bondedatomid2 c_btype
1 1 2 1 
2 2 3 1 
3 19 20 1 
4 17 18 1 
5 18 28 2 
6 28 29 1 
7 21 29 2 
8 16 17 1 
9 16 29 2 
10 16 19 2 
11 29 30 1 
12 20 21 1 
13 22 23 1 
14 23 24 1 
15 7 8 1 
16 8 9 1 
17 4 5 1 
18 5 6 1 
19 25 26 1 
20 26 27 1 
21 11 12 1 
22 10 11 1 
23 14 15 1 
24 13 14 1 
ITEM: TIMESTEP
24800
ITEM: NUMBER OF ENTRIES
24
ITEM: BOX BOUNDS pp pp pp
-1.0000000000000000e+01 1.0000000000000000e+01
-1.0000000000000000e+01 1.0000000000000000e+01
-1.0000000000000000e+01 1.0000000000000000e+01
ITEM: ENTRIES index c_bondedatomid1 c_bondedatomid2 c_btype
1 1 2 1 
2 2 3 1 
3 19 20 1 
4 17 18 1 
5 18 28 2 
6 28 29 1 
7 21 29 2 
8 16 17 1 
9 16 29 2 
10 16 19 2 
11 29 30 1 
12 20 21 1 
13 22 23 1 
14 23 24 1 
15 7 8 1 
16 8 9 1 
17 4 5 1 
18 5 6 1 
19 25 26 1 
20 26 27 1 
21 11 12 1 
22 10 11 1 
23 14 15 1 
24 13 14 1 
ITEM: TIMESTEP
24900
ITEM: NUMBER OF ENTRIES
24
ITEM: BOX BOUNDS pp pp pp
-1.0000000000000000e+01 1.0000000000000000e+01
-1.0000000000000000e+01 1.0000000000000000e+01
-1.0000000000000000e+01 1.0000000000000000e+01
ITEM: ENTRIES index c_bondedatomid1 c_bondedatomid2 c_btype
1 1 2 1 
2 2 3 1 
3 19 20 1 
4 17 18 1 
5 18 28 2 
6 28 29 1 
7 21 29 2 
8 16 17 1 
9 16 29 2 
10 16 19 2 
11 29 30 1 
12 20 21 1 
13 22 23 1 
14 23 24 1 
15 7 8 1 
16 8 9 1 
17 4 5 1 
18 5 6 1 
19 25 26 1 
20 26 27 1 
21 11 12 1 
22 10 11 1 
23 14 15 1 
24 13 14 1 
ITEM: TIMESTEP
25000
ITEM: NUMBER OF ENTRIES
24
ITEM: BOX BOUNDS pp pp pp
-1.0000000000000000e+01 1.0000000000000000e+01
-1.0000000000000000e+01 1.0000000000000000e+01
-1.0000000000000000e+01 1.0000000000000000e+01
ITEM: ENTRIES index c_bondedatomid1 c_bondedatomid2 c_btype
1 1 2 1 
2 2 3 1 
3 19 20 1 
4 17 18 1 
5 18 28 2 
6 28 29 1 
7 21 29 2 
8 16 17 1 
9 16 29 2 
10 16 19 2 
11 29 30 1 
12 20 21 1 
13 22 23 1 
14 23 24 1 
15 7 8 1 
16 8 9 1 
17 4 5 1 
18 5 6 1 
19 25 26 1 
20 26 27 1 
21 11 12 1 
22 10 11 1 
23 14 15 1 
24 13 14 1 
ITEM: TIMESTEP
25100
ITEM: NUMBER OF ENTRIES
24
ITEM: BOX BOUNDS pp pp pp
-1.0000000000000000e+01 1.0000000000000000e+01
-1.0000000000000000e+01 1.0000000000000000e+01
-1.0000000000000000e+01 1.0000000000000000e+01
ITEM: ENTRIES index c_bondedatomid1 c_bondedatomid2 c_btype
1 1 2 1 
2 2 3 1 
3 19 20 1 
4 17 18 1 
5 18 28 2 
6 28 29 1 
7 21 29 2 
8 16 17 1 
9 16 29 2 
10 16 19 2 
11 29 30 1 
12 20 21 1 
13 22 23 1 
14 23 24 1 
15 7 8 1 
16 8 9 1 
17 4 5 1 
18 5 6 1 
19 25 26 1 
20 26 27 1 
21 11 12 1 
22 10 11 1 
23 14 15 1 
24 13 14 1 
ITEM: TIMESTEP
25200
ITEM: NUMBER OF ENTRIES
24
ITEM: BOX BOUNDS pp pp pp
-1.0000000000000000e+01 1.0000000000000000e+01
-1.0000000000000000e+01 1.0000000000000000e+01
-1.0000000000000000e+01 1.0000000000000000e+01
ITEM: ENTRIES index c_bondedatomid1 c_bondedatomid2 c_btype
1 1 2 1 
2 2 3 1 
3 21 29 2 
4 20 21 1 
5 19 20 1 
6 17 18 1 
7 18 28 2 
8 28 29 1 
9 16 17 1 
10 16 29 2 
11 16 19 2 
12 29 30 1 
13 23 24 1 
14 22 23 1 
15 7 8 1 
16 8 9 1 
17 4 5 1 
18 5 6 1 
19 25 26 1 
20 26 27 1 
21 11 12 1 
22 10 11 1 
23 13 14 1 
24 14 15 1 
ITEM: TIMESTEP
25300
ITEM: NUMBER OF ENTRIES
24
ITEM: BOX BOUNDS pp pp pp
-1.0000000000000000e+01 1.0000000000000000e+01
-1.0000000000000000e+01 1.0000000000000000e+01
-1.0000000000000000e+01 1.0000000000000000e+01
ITEM: ENTRIES index c_bondedatomid1 c_bondedatomid2 c_btype
1 1 2 1 
2 2 3 1 
3 21 29 2 
4 20 21 1 
5 19 20 1 
6 17 18 1 
7 18 28 2 
8 28 29 1 
9 16 17 1 
10 16 29 2 
11 16 19 2 
12 29 30 1 
13 23 24 1 
14 22 23 1 
15 7 8 1 
16 8 9 1 
17 4 5 1 
18 5 6 1 
19 25 26 1 
20 26 27 1 
21 11 12 1 
22 10 11 1 
23 13 14 1 
24 14 15 1 
ITEM: TIMESTEP
25400
ITEM: NUMBER OF ENTRIES
24
ITEM: BOX BOUNDS pp pp pp
-1.0000000000000000e+01 1.0000000000000000e+01
-1.0000000000000000e+01 1.0000000000000000e+01
-1.0000000000000000e+01 1.0000000000000000e+01
ITEM: ENTRIES index c_bondedatomid1 c_bondedatomid2 c_btype
1 1 2 1 
2 2 3 1 
3 21 29 2 
4 20 21 1 
5 19 20 1 
6 17 18 1 
7 18 28 2 
8 28 29 1 
9 16 17 1 
10 16 29 2 
11 16 19 2 
12 29 30 1 
13 23 24 1 
14 22 23 1 
15 7 8 1 
16 8 9 1 
17 4 5 1 
18 5 6 1 
19 25 26 1 
20 26 27 1 
21 11 12 1 
22 10 11 1 
23 13 14 1 
24 14 15 1 
ITEM: TIMESTEP
25500
ITEM: NUMBER OF ENTRIES
24
ITEM: BOX BOUNDS pp pp pp
-1.0000000000000000e+01 1.0000000000000000e+01
-1.0000000000000000e+01 1.0000000000000000e+01
-1.0000000000000000e+01 1.0000000000000000e+01
ITEM: ENTRIES index c_bondedatomid1 c_bondedatomid2 c_btype
1 1 2 1 
2 2 3 1 
3 21 29 2 
4 20 21 1 
5 19 20 1 
6 17 18 1 
7 18 28 2 
8 28 29 1 
9 16 17 1 
10 16 29 2 
11 16 19 2 
12 29 30 1 
13 23 24 1 
14 22 23 1 
15 7 8 1 
16 8 9 1 
17 4 5 1 
18 5 6 1 
19 25 26 1 
20 26 27 1 
21 11 12 1 
22 10 11 1 
23 13 14 1 
24 14 15 1 
ITEM: TIMESTEP
25600
ITEM: NUMBER OF ENTRIES
24
ITEM: BOX BOUNDS pp pp pp
-1.0000000000000000e+01 1.0000000000000000e+01
-1.0000000000000000e+01 1.0000000000000000e+01
-1.0000000000000000e+01 1.0000000000000000e+01
ITEM: ENTRIES index c_bondedatomid1 c_bondedatomid2 c_btype
1 1 2 1 
2 2 3 1 
3 21 29 2 
4 20 21 1 
5 19 20 1 
6 17 18 1 
7 18 28 2 
8 28 29 1 
9 16 17 1 
10 16 29 2 
11 16 19 2 
12 29 30 1 
13 23 24 1 
14 22 23 1 
15 7 8 1 
16 8 9 1 
17 4 5 1 
18 5 6 1 
19 25 26 1 
20 26 27 1 
21 11 12 1 
22 10 11 1 
23 13 14 1 
24 14 15 1 
ITEM: TIMESTEP
25700
ITEM: NUMBER OF ENTRIES
24
ITEM: BOX BOUNDS pp pp pp
-1.0000000000000000e+01 1.0000000000000000e+01
-1.0000000000000000e+01 1.0000000000000000e+01
-1.0000000000000000e+01 1.0000000000000000e+01
ITEM: ENTRIES index c_bondedatomid1 c_bondedatomid2 c_btype
1 1 2 1 
2 2 3 1 
3 21 29 2 
4 20 21 1 
5 19 20 1 
6 17 18 1 
7 18 28 2 
8 28 29 1 
9 16 17 1 
10 16 29 2 
11 16 19 2 
12 29 30 1 
13 23 24 1 
14 22 23 1 
15 7 8 1 
16 8 9 1 
17 4 5 1 
18 5 6 1 
19 25 26 1 
20 26 27 1 
21 11 12 1 
22 10 11 1 
23 13 14 1 
24 14 15 1 
ITEM: TIMESTEP
25800
ITEM: NUMBER OF ENTRIES
24
ITEM: BOX BOUNDS pp pp pp
-1.0000000000000000e+01 1.0000000000000000e+01
-1.0000000000000000e+01 1.0000000000000000e+01
-1.0000000000000000e+01 1.0000000000000000e+01
ITEM: ENTRIES index c_bondedatomid1 c_bondedatomid2 c_btype
1 1 2 1 
2 2 3 1 
3 21 29 2 
4 20 21 1 
5 19 20 1 
6 17 18 1 
7 18 28 2 
8 28 29 1 
9 16 17 1 
10 16 29 2 
11 16 19 2 
12 29 30 1 
13 23 24 1 
14 22 23 1 
15 7 8 1 
16 8 9 1 
17 4 5 1 
18 5 6 1 
19 25 26 1 
20 26 27 1 
21 11 12 1 
22 10 11 1 
23 13 14 1 
24 14 15 1 
ITEM: TIMESTEP
25900
ITEM: NUMBER OF ENTRIES
24
ITEM: BOX BOUNDS pp pp pp
-1.0000000000000000e+01 1.0000000000000000e+01
-1.0000000000000000e+01 1.0000000000000000e+01
-1.0000000000000000e+01 1.0000000000000000e+01
ITEM: ENTRIES index c_bondedatomid1 c_bondedatomid2 c_btype
1 1 2 1 
2 2 3 1 
3 21 29 2 
4 20 21 1 
5 19 20 1 
6 17 18 1 
7 18 28 2 
8 28 29 1 
9 16 17 1 
10 16 29 2 
11 16 19 2 
12 29 30 1 
13 23 24 1 
14 22 23 1 
15 7 8 1 
16 8 9 1 
17 4 5 1 
18 5 6 1 
19 25 26 1 
20 26 27 1 
21 11 12 1 
22 10 11 1 
23 13 14 1 
24 14 15 1 
ITEM: TIMESTEP
26000
ITEM: NUMBER OF ENTRIES
24
ITEM: BOX BOUNDS pp pp pp
-1.0000000000000000e+01 1.0000000000000000e+01
-1.0000000000000000e+01 1.0000000000000000e+01
-1.0000000000000000e+01 1.0000000000000000e+01
ITEM: ENTRIES index c_bondedatomid1 c_bondedatomid2 c_btype
1 1 2 1 
2 2 3 1 
3 21 29 2 
4 20 21 1 
5 19 20 1 
6 17 18 1 
7 18 28 2 
8 28 29 1 
9 16 17 1 
10 16 29 2 
11 16 19 2 
12 29 30 1 
13 23 24 1 
14 22 23 1 
15 7 8 1 
16 8 9 1 
17 4 5 1 
18 5 6 1 
19 25 26 1 
20 26 27 1 
21 11 12 1 
22 10 11 1 
23 13 14 1 
24 14 15 1 
ITEM: TIMESTEP
26100
ITEM: NUMBER OF ENTRIES
24
ITEM: BOX BOUNDS pp pp pp
-1.0000000000000000e+01 1.0000000000000000e+01
-1.0000000000000000e+01 1.0000000000000000e+01
-1.0000000000000000e+01 1.0000000000000000e+01
ITEM: ENTRIES index c_bondedatomid1 c_bondedatomid2 c_btype
1 1 2 1 
2 2 3 1 
3 21 29 2 
4 20 21 1 
5 19 20 1 
6 17 18 1 
7 18 28 2 
8 28 29 1 
9 16 17 1 
10 16 29 2 
11 16 19 2 
12 29 30 1 
13 23 24 1 
14 22 23 1 
15 7 8 1 
16 8 9 1 
17 4 5 1 
18 5 6 1 
19 25 26 1 
20 26 27 1 
21 11 12 1 
22 10 11 1 
23 13 14 1 
24 14 15 1 
ITEM: TIMESTEP
26200
ITEM: NUMBER OF ENTRIES
24
ITEM: BOX BOUNDS pp pp pp
-1.0000000000000000e+01 1.0000000000000000e+01
-1.0000000000000000e+01 1.0000000000000000e+01
-1.0000000000000000e+01 1.0000000000000000e+01
ITEM: ENTRIES index c_bondedatomid1 c_bondedatomid2 c_btype
1 2 3 1 
2 1 2 1 
3 21 29 2 
4 20 21 1 
5 17 18 1 
6 16 17 1 
7 16 29 2 
8 16 19 2 
9 19 20 1 
10 29 30 1 
11 18 28 2 
12 28 29 1 
13 22 23 1 
14 7 8 1 
15 8 9 1 
16 23 24 1 
17 5 6 1 
18 4 5 1 
19 11 12 1 
20 25 26 1 
21 26 27 1 
22 10 11 1 
23 13 14 1 
24 14 15 1 
ITEM: TIMESTEP
26300
ITEM: NUMBER OF ENTRIES
24
ITEM: BOX BOUNDS pp pp pp
-1.0000000000000000e+01 1.0000000000000000e+01
-1.0000000000000000e+01 1.0000000000000000e+01
-1.0000000000000000e+01 1.0000000000000000e+01
ITEM: ENTRIES index c_bondedatomid1 c_bondedatomid2 c_btype
1 2 3 1 
2 1 2 1 
3 21 29 2 
4 20 21 1 
5 17 18 1 
6 16 17 1 
7 16 29 2 
8 16 19 2 
9 19 20 1 
10 29 30 1 
11 18 28 2 
12 28 29 1 
13 22 23 1 
14 7 8 1 
15 8 9 1 
16 23 24 1 
17 5 6 1 
18 4 5 1 
19 11 12 1 
20 25 26 1 
21 26 27 1 
22 10 11 1 
23 13 14 1 
24 14 15 1 
ITEM: TIMESTEP
26400
ITEM: NUMBER OF ENTRIES
24
ITEM: BOX BOUNDS pp pp pp
-1.0000000000000000e+01 1.0000000000000000e+01
-1.0000000000000000e+01 1.0000000000000000e+01
-1.0000000000000000e+01 1.0000000000000000e+01
ITEM: ENTRIES index c_bondedatomid1 c_bondedatomid2 c_btype
1 2 3 1 
2 1 2 1 
3 21 29 2 
4 20 21 1 
5 17 18 1 
6 16 17 1 
7 16 29 2 
8 16 19 2 
9 19 20 1 
10 29 30 1 
11 18 28 2 
12 28 29 1 
13 22 23 1 
14 7 8 1 
15 8 9 1 
16 23 24 1 
17 5 6 1 
18 4 5 1 
19 11 12 1 
20 25 26 1 
21 26 27 1 
22 10 11 1 
23 13 14 1 
24 14 15 1 
ITEM: TIMESTEP
26500
ITEM: NUMBER OF ENTRIES
24
ITEM: BOX BOUNDS pp pp pp
-1.0000000000000000e+01 1.0000000000000000e+01
-1.0000000000000000e+01 1.0000000000000000e+01
-1.0000000000000000e+01 1.0000000000000000e+01
ITEM: ENTRIES index c_bondedatomid1 c_bondedatomid2 c_btype
1 2 3 1 
2 1 2 1 
3 21 29 2 
4 20 21 1 
5 17 18 1 
6 16 17 1 
7 16 29 2 
8 16 19 2 
9 19 20 1 
10 29 30 1 
11 18 28 2 
12 28 29 1 
13 22 23 1 
14 7 8 1 
15 8 9 1 
16 23 24 1 
17 5 6 1 
18 4 5 1 
19 11 12 1 
20 25 26 1 
21 26 27 1 
22 10 11 1 
23 13 14 1 
24 14 15 1 
ITEM: TIMESTEP
26600
ITEM: NUMBER OF ENTRIES
24
ITEM: BOX BOUNDS pp pp pp
-1.0000000000000000e+01 1.0000000000000000e+01
-1.0000000000000000e+01 1.0000000000000000e+01
-1.0000000000000000e+01 1.0000000000000000e+01
ITEM: ENTRIES index c_bondedatomid1 c_bondedatomid2 c_btype
1 2 3 1 
2 1 2 1 
3 21 29 2 
4 20 21 1 
5 17 18 1 
6 16 17 1 
7 16 29 2 
8 16 19 2 
9 19 20 1 
10 29 30 1 
11 18 28 2 
12 28 29 1 
13 22 23 1 
14 7 8 1 
15 8 9 1 
16 23 24 1 
17 5 6 1 
18 4 5 1 
19 11 12 1 
20 25 26 1 
21 26 27 1 
22 10 11 1 
23 13 14 1 
24 14 15 1 
ITEM: TIMESTEP
26700
ITEM: NUMBER OF ENTRIES
24
ITEM: BOX BOUNDS pp pp pp
-1.0000000000000000e+01 1.0000000000000000e+01
-1.0000000000000000e+01 1.0000000000000000e+01
-1.0000000000000000e+01 1.0000000000000000e+01
ITEM: ENTRIES index c_bondedatomid1 c_bondedatomid2 c_btype
1 2 3 1 
2 1 2 1 
3 21 29 2 
4 20 21 1 
5 17 18 1 
6 16 17 1 
7 16 29 2 
8 16 19 2 
9 19 20 1 
10 29 30 1 
11 18 28 2 
12 28 29 1 
13 22 23 1 
14 7 8 1 
15 8 9 1 
16 23 24 1 
17 5 6 1 
18 4 5 1 
19 11 12 1 
20 25 26 1 
21 26 27 1 
22 10 11 1 
23 13 14 1 
24 14 15 1 
ITEM: TIMESTEP
26800
ITEM: NUMBER OF ENTRIES
24
ITEM: BOX BOUNDS pp pp pp
-1.0000000000000000e+01 1.0000000000000000e+01
-1.0000000000000000e+01 1.0000000000000000e+01
-1.0000000000000000e+01 1.0000000000000000e+01
ITEM: ENTRIES index c_bondedatomid1 c_bondedatomid2 c_btype
1 2 3 1 
2 1 2 1 
3 21 29 2 
4 20 21 1 
5 17 18 1 
6 16 17 1 
7 16 29 2 
8 16 19 2 
9 19 20 1 
10 29 30 1 
11 18 28 2 
12 28 29 1 
13 22 23 1 
14 7 8 1 
15 8 9 1 
16 23 24 1 
17 5 6 1 
18 4 5 1 
19 11 12 1 
20 25 26 1 
21 26 27 1 
22 10 11 1 
23 13 14 1 
24 14 15 1 
ITEM: TIMESTEP
26900
ITEM: NUMBER OF ENTRIES
24
ITEM: BOX BOUNDS pp pp pp
-1.0000000000000000e+01 1.0000000000000000e+01
-1.0000000000000000e+01 1.0000000000000000e+01
-1.0000000000000000e+01 1.0000000000000000e+01
ITEM: ENTRIES index c_bondedatomid1 c_bondedatomid2 c_btype
1 2 3 1 
2 1 2 1 
3 21 29 2 
4 20 21 1 
5 17 18 1 
6 16 17 1 
7 16 29 2 
8 16 19 2 
9 19 20 1 
10 29 30 1 
11 18 28 2 
12 28 29 1 
13 22 23 1 
14 7 8 1 
15 8 9 1 
16 23 24 1 
17 5 6 1 
18 4 5 1 
19 11 12 1 
20 25 26 1 
21 26 27 1 
22 10 11 1 
23 13 14 1 
24 14 15 1 
ITEM: TIMESTEP
27000
ITEM: NUMBER OF ENTRIES
24
ITEM: BOX BOUNDS pp pp pp
-1.0000000000000000e+01 1.0000000000000000e+01
-1.0000000000000000e+01 1.0000000000000000e+01
-1.0000000000000000e+01 1.0000000000000000e+01
ITEM: ENTRIES index c_bondedatomid1 c_bondedatomid2 c_btype
1 2 3 1 
2 1 2 1 
3 21 29 2 
4 20 21 1 
5 17 18 1 
6 16 17 1 
7 16 29 2 
8 16 19 2 
9 19 20 1 
10 29 30 1 
11 18 28 2 
12 28 29 1 
13 22 23 1 
14 7 8 1 
15 8 9 1 
16 23 24 1 
17 5 6 1 
18 4 5 1 
19 11 12 1 
20 25 26 1 
21 26 27 1 
22 10 11 1 
23 13 14 1 
24 14 15 1 
ITEM: TIMESTEP
27100
ITEM: NUMBER OF ENTRIES
24
ITEM: BOX BOUNDS pp pp pp
-1.0000000000000000e+01 1.0000000000000000e+01
-1.0000000000000000e+01 1.0000000000000000e+01
-1.0000000000000000e+01 1.0000000000000000e+01
ITEM: ENTRIES index c_bondedatomid1 c_bondedatomid2 c_btype
1 2 3 1 
2 1 2 1 
3 18 28 2 
4 21 29 2 
5 20 21 1 
6 16 17 1 
7 16 29 2 
8 16 19 2 
9 19 20 1 
10 17 18 1 
11 29 30 1 
12 28 29 1 
13 22 23 1 
14 23 24 1 
15 7 8 1 
16 8 9 1 
17 5 6 1 
18 4 5 1 
19 25 26 1 
20 26 27 1 
21 11 12 1 
22 10 11 1 
23 14 15 1 
24 13 14 1 
ITEM: TIMESTEP
27200
ITEM: NUMBER OF ENTRIES
24
ITEM: BOX BOUNDS pp pp pp
-1.0000000000000000e+01 1.0000000000000000e+01
-1.0000000000000000e+01 1.0000000000000000e+01
-1.0000000000000000e+01 1.0000000000000000e+01
ITEM: ENTRIES index c_bondedatomid1 c_bondedatomid2 c_btype
1 2 3 1 
2 1 2 1 
3 18 28 2 
4 21 29 2 
5 20 21 1 
6 16 17 1 
7 16 29 2 
8 16 19 2 
9 19 20 1 
10 17 18 1 
11 29 30 1 
12 28 29 1 
13 22 23 1 
14 23 24 1 
15 7 8 1 
16 8 9 1 
17 5 6 1 
18 4 5 1 
19 25 26 1 
20 26 27 1 
21 11 12 1 
22 10 11 1 
23 14 15 1 
24 13 14 1 
ITEM: TIMESTEP
27300
ITEM: NUMBER OF ENTRIES
24
ITEM: BOX BOUNDS pp pp pp
-1.0000000000000000e+01 1.0000000000000000e+01
-1.0000000000000000e+01 1.0000000000000000e+01
-1.0000000000000000e+01 1.0000000000000000e+01
ITEM: ENTRIES index c_bondedatomid1 c_bondedatomid2 c_btype
1 2 3 1 
2 1 2 1 
3 18 28 2 
4 21 29 2 
5 20 21 1 
6 16 17 1 
7 16 29 2 
8 16 19 2 
9 19 20 1 
10 17 18 1 
11 29 30 1 
12 28 29 1 
13 22 23 1 
14 23 24 1 
15 7 8 1 
16 8 9 1 
17 5 6 1 
18 4 5 1 
19 25 26 1 
20 26 27 1 
21 11 12 1 
22 10 11 1 
23 14 15 1 
24 13 14 1 
ITEM: TIMESTEP
27400
ITEM: NUMBER OF ENTRIES
24
ITEM: BOX BOUNDS pp pp pp
-1.0000000000000000e+01 1.0000000000000000e+01
-1.0000000000000000e+01 1.0000000000000000e+01
-1.0000000000000000e+01 1.0000000000000000e+01
ITEM: ENTRIES index c_bondedatomid1 c_bondedatomid2 c_btype
1 2 3 1 
2 1 2 1 
3 18 28 2 
4 21 29 2 
5 20 21 1 
6 16 17 1 
7 16 29 2 
8 16 19 2 
9 19 20 1 
10 17 18 1 
11 29 30 1 
12 28 29 1 
13 22 23 1 
14 23 24 1 
15 7 8 1 
16 8 9 1 
17 5 6 1 
18 4 5 1 
19 25 26 1 
20 26 27 1 
21 11 12 1 
22 10 11 1 
23 14 15 1 
24 13 14 1 
ITEM: TIMESTEP
27500
ITEM: NUMBER OF ENTRIES
24
ITEM: BOX BOUNDS pp pp pp
-1.0000000000000000e+01 1.0000000000000000e+01
-1.0000000000000000e+01 1.0000000000000000e+01
-1.0000000000000000e+01 1.0000000000000000e+01
ITEM: ENTRIES index c_bondedatomid1 c_bondedatomid2 c_btype
1 2 3 1 
2 1 2 1 
3 18 28 2 
4 21 29 2 
5 20 21 1 
6 16 17 1 
7 16 29 2 
8 16 19 2 
9 19 20 1 
10 17 18 1 
11 29 30 1 
12 28 29 1 
13 22 23 1 
14 23 24 1 
15 7 8 1 
16 8 9 1 
17 5 6 1 
18 4 5 1 
19 25 26 1 
20 26 27 1 
21 11 12 1 
22 10 11 1 
23 14 15 1 
24 13 14 1 
ITEM: TIMESTEP
27600
ITEM: NUMBER OF ENTRIES
24
ITEM: BOX BOUNDS pp pp pp
-1.0000000000000000e+01 1.0000000000000000e+01
-1.0000000000000000e+01 1.0000000000000000e+01
-1.0000000000000000e+01 1.0000000000000000e+01
ITEM: ENTRIES index c_bondedatomid1 c_bondedatomid2 c_btype
1 2 3 1 
2 1 2 1 
3 18 28 2 
4 21 29 2 
5 20 21 1 
6 16 17 1 
7 16 29 2 
8 16 19 2 
9 19 20 1 
10 17 18 1 
11 29 30 1 
12 28 29 1 
13 22 23 1 
14 23 24 1 
15 7 8 1 
16 8 9 1 
17 5 6 1 
18 4 5 1 
19 25 26 1 
20 26 27 1 
21 11 12 1 
22 10 11 1 
23 14 15 1 
24 13 14 1 
ITEM: TIMESTEP
27700
ITEM: NUMBER OF ENTRIES
24
ITEM: BOX BOUNDS pp pp pp
-1.0000000000000000e+01 1.0000000000000000e+01
-1.0000000000000000e+01 1.0000000000000000e+01
-1.0000000000000000e+01 1.0000000000000000e+01
ITEM: ENTRIES index c_bondedatomid1 c_bondedatomid2 c_btype
1 2 3 1 
2 1 2 1 
3 18 28 2 
4 21 29 2 
5 20 21 1 
6 16 17 1 
7 16 29 2 
8 16 19 2 
9 19 20 1 
10 17 18 1 
11 29 30 1 
12 28 29 1 
13 22 23 1 
14 23 24 1 
15 7 8 1 
16 8 9 1 
17 5 6 1 
18 4 5 1 
19 25 26 1 
20 26 27 1 
21 11 12 1 
22 10 11 1 
23 14 15 1 
24 13 14 1 
ITEM: TIMESTEP
27800
ITEM: NUMBER OF ENTRIES
24
ITEM: BOX BOUNDS pp pp pp
-1.0000000000000000e+01 1.0000000000000000e+01
-1.0000000000000000e+01 1.0000000000000000e+01
-1.0000000000000000e+01 1.0000000000000000e+01
ITEM: ENTRIES index c_bondedatomid1 c_bondedatomid2 c_btype
1 2 3 1 
2 1 2 1 
3 18 28 2 
4 21 29 2 
5 20 21 1 
6 16 17 1 
7 16 29 2 
8 16 19 2 
9 19 20 1 
10 17 18 1 
11 29 30 1 
12 28 29 1 
13 22 23 1 
14 23 24 1 
15 7 8 1 
16 8 9 1 
17 5 6 1 
18 4 5 1 
19 25 26 1 
20 26 27 1 
21 11 12 1 
22 10 11 1 
23 14 15 1 
24 13 14 1 
ITEM: TIMESTEP
27900
ITEM: NUMBER OF ENTRIES
24
ITEM: BOX BOUNDS pp pp pp
-1.0000000000000000e+01 1.0000000000000000e+01
-1.0000000000000000e+01 1.0000000000000000e+01
-1.0000000000000000e+01 1.0000000000000000e+01
ITEM: ENTRIES index c_bondedatomid1 c_bondedatomid2 c_btype
1 2 3 1 
2 1 2 1 
3 18 28 2 
4 21 29 2 
5 20 21 1 
6 16 17 1 
7 16 29 2 
8 16 19 2 
9 19 20 1 
10 17 18 1 
11 29 30 1 
12 28 29 1 
13 22 23 1 
14 23 24 1 
15 7 8 1 
16 8 9 1 
17 5 6 1 
18 4 5 1 
19 25 26 1 
20 26 27 1 
21 11 12 1 
22 10 11 1 
23 14 15 1 
24 13 14 1 
ITEM: TIMESTEP
28000
ITEM: NUMBER OF ENTRIES
24
ITEM: BOX BOUNDS pp pp pp
-1.0000000000000000e+01 1.0000000000000000e+01
-1.0000000000000000e+01 1.0000000000000000e+01
-1.0000000000000000e+01 1.0000000000000000e+01
ITEM: ENTRIES index c_bondedatomid1 c_bondedatomid2 c_btype
1 2 3 1 
2 1 2 1 
3 18 28 2 
4 21 29 2 
5 20 21 1 
6 16 17 1 
7 16 29 2 
8 16 19 2 
9 19 20 1 
10 17 18 1 
11 29 30 1 
12 28 29 1 
13 22 23 1 
14 23 24 1 
15 7 8 1 
16 8 9 1 
17 5 6 1 
18 4 5 1 
19 25 26 1 
20 26 27 1 
21 11 12 1 
22 10 11 1 
23 14 15 1 
24 13 14 1 
ITEM: TIMESTEP
28100
ITEM: NUMBER OF ENTRIES
24
ITEM: BOX BOUNDS pp pp pp
-1.0000000000000000e+01 1.0000000000000000e+01
-1.0000000000000000e+01 1.0000000000000000e+01
-1.0000000000000000e+01 1.0000000000000000e+01
ITEM: ENTRIES index c_bondedatomid1 c_bondedatomid2 c_btype
1 2 3 1 
2 1 2 1 
3 18 28 2 
4 28 29 1 
5 21 29 2 
6 29 30 1 
7 20 21 1 
8 19 20 1 
9 17 18 1 
10 16 17 1 
11 16 29 2 
12 16 19 2 
13 22 23 1 
14 23 24 1 
15 5 6 1 
16 4 5 1 
17 7 8 1 
18 8 9 1 
19 26 27 1 
20 25 26 1 
21 11 12 1 
22 10 11 1 
23 14 15 1 
24 13 14 1 
ITEM: TIMESTEP
28200
ITEM: NUMBER OF ENTRIES
24
ITEM: BOX BOUNDS pp pp pp
-1.0000000000000000e+01 1.0000000000000000e+01
-1.0000000000000000e+01 1.0000000000000000e+01
-1.0000000000000000e+01 1.0000000000000000e+01
ITEM: ENTRIES index c_bondedatomid1 c_bondedatomid2 c_btype
1 2 3 1 
2 1 2 1 
3 18 28 2 
4 28 29 1 
5 21 29 2 
6 29 30 1 
7 20 21 1 
8 19 20 1 
9 17 18 1 
10 16 17 1 
11 16 29 2 
12 16 19 2 
13 22 23 1 
14 23 24 1 
15 5 6 1 
16 4 5 1 
17 7 8 1 
18 8 9 1 
19 26 27 1 
20 25 26 1 
21 11 12 1 
22 10 11 1 
23 14 15 1 
24 13 14 1 
ITEM: TIMESTEP
28300
ITEM: NUMBER OF ENTRIES
24
ITEM: BOX BOUNDS pp pp pp
-1.0000000000000000e+01 1.0000000000000000e+01
-1.0000000000000000e+01 1.0000000000000000e+01
-1.0000000000000000e+01 1.0000000000000000e+01
ITEM: ENTRIES index c_bondedatomid1 c_bondedatomid2 c_btype
1 2 3 1 
2 1 2 1 
3 18 28 2 
4 28 29 1 
5 21 29 2 
6 29 30 1 
7 20 21 1 
8 19 20 1 
9 17 18 1 
10 16 17 1 
11 16 29 2 
12 16 19 2 
13 22 23 1 
14 23 24 1 
15 5 6 1 
16 4 5 1 
17 7 8 1 
18 8 9 1 
19 26 27 1 
20 25 26 1 
21 11 12 1 
22 10 11 1 
23 14 15 1 
24 13 14 1 
ITEM: TIMESTEP
28400
ITEM: NUMBER OF ENTRIES
24
ITEM: BOX BOUNDS pp pp pp
-1.0000000000000000e+01 1.0000000000000000e+01
-1.0000000000000000e+01 1.0000000000000000e+01
-1.0000000000000000e+01 1.0000000000000000e+01
ITEM: ENTRIES index c_bondedatomid1 c_bondedatomid2 c_btype
1 2 3 1 
2 1 2 1 
3 18 28 2 
4 28 29 1 
5 21 29 2 
6 29 30 1 
7 20 21 1 
8 19 20 1 
9 17 18 1 
10 16 17 1 
11 16 29 2 
12 16 19 2 
13 22 23 1 
14 23 24 1 
15 5 6 1 
16 4 5 1 
17 7 8 1 
18 8 9 1 
19 26 27 1 
20 25 26 1 
21 11 12 1 
22 10 11 1 
23 14 15 1 
24 13 14 1 
ITEM: TIMESTEP
28500
ITEM: NUMBER OF ENTRIES
24
ITEM: BOX BOUNDS pp pp pp
-1.0000000000000000e+01 1.0000000000000000e+01
-1.0000000000000000e+01 1.0000000000000000e+01
-1.0000000000000000e+01 1.0000000000000000e+01
ITEM: ENTRIES index c_bondedatomid1 c_bondedatomid2 c_btype
1 2 3 1 
2 1 2 1 
3 18 28 2 
4 28 29 1 
5 21 29 2 
6 29 30 1 
7 20 21 1 
8 19 20 1 
9 17 18 1 
10 16 17 1 
11 16 29 2 
12 16 19 2 
13 22 23 1 
14 23 24 1 
15 5 6 1 
16 4 5 1 
17 7 8 1 
18 8 9 1 
19 26 27 1 
20 25 26 1 
21 11 12 1 
22 10 11 1 
23 14 15 1 
24 13 14 1 
ITEM: TIMESTEP
28600
ITEM: NUMBER OF ENTRIES
24
ITEM: BOX BOUNDS pp pp pp
-1.0000000000000000e+01 1.0000000000000000e+01
-1.0000000000000000e+01 1.0000000000000000e+01
-1.0000000000000000e+01 1.0000000000000000e+01
ITEM: ENTRIES index c_bondedatomid1 c_bondedatomid2 c_btype
1 2 3 1 
2 1 2 1 
3 18 28 2 
4 28 29 1 
5 21 29 2 
6 29 30 1 
7 20 21 1 
8 19 20 1 
9 17 18 1 
10 16 17 1 
11 16 29 2 
12 16 19 2 
13 22 23 1 
14 23 24 1 
15 5 6 1 
16 4 5 1 
17 7 8 1 
18 8 9 1 
19 26 27 1 
20 25 26 1 
21 11 12 1 
22 10 11 1 
23 14 15 1 
24 13 14 1 
ITEM: TIMESTEP
28700
ITEM: NUMBER OF ENTRIES
24
ITEM: BOX BOUNDS pp pp pp
-1.0000000000000000e+01 1.0000000000000000e+01
-1.0000000000000000e+01 1.0000000000000000e+01
-1.0000000000000000e+01 1.0000000000000000e+01
ITEM: ENTRIES index c_bondedatomid1 c_bondedatomid2 c_btype
1 2 3 1 
2 1 2 1 
3 18 28 2 
4 28 29 1 
5 21 29 2 
6 29 30 1 
7 20 21 1 
8 19 20 1 
9 17 18 1 
10 16 17 1 
11 16 29 2 
12 16 19 2 
13 22 23 1 
14 23 24 1 
15 5 6 1 
16 4 5 1 
17 7 8 1 
18 8 9 1 
19 26 27 1 
20 25 26 1 
21 11 12 1 
22 10 11 1 
23 14 15 1 
24 13 14 1 
ITEM: TIMESTEP
28800
ITEM: NUMBER OF ENTRIES
24
ITEM: BOX BOUNDS pp pp pp
-1.0000000000000000e+01 1.0000000000000000e+01
-1.0000000000000000e+01 1.0000000000000000e+01
-1.0000000000000000e+01 1.0000000000000000e+01
ITEM: ENTRIES index c_bondedatomid1 c_bondedatomid2 c_btype
1 2 3 1 
2 1 2 1 
3 18 28 2 
4 28 29 1 
5 21 29 2 
6 29 30 1 
7 20 21 1 
8 19 20 1 
9 17 18 1 
10 16 17 1 
11 16 29 2 
12 16 19 2 
13 22 23 1 
14 23 24 1 
15 5 6 1 
16 4 5 1 
17 7 8 1 
18 8 9 1 
19 26 27 1 
20 25 26 1 
21 11 12 1 
22 10 11 1 
23 14 15 1 
24 13 14 1 
ITEM: TIMESTEP
28900
ITEM: NUMBER OF ENTRIES
24
ITEM: BOX BOUNDS pp pp pp
-1.0000000000000000e+01 1.0000000000000000e+01
-1.0000000000000000e+01 1.0000000000000000e+01
-1.0000000000000000e+01 1.0000000000000000e+01
ITEM: ENTRIES index c_bondedatomid1 c_bondedatomid2 c_btype
1 2 3 1 
2 1 2 1 
3 18 28 2 
4 28 29 1 
5 21 29 2 
6 29 30 1 
7 20 21 1 
8 19 20 1 
9 17 18 1 
10 16 17 1 
11 16 29 2 
12 16 19 2 
13 22 23 1 
14 23 24 1 
15 5 6 1 
16 4 5 1 
17 7 8 1 
18 8 9 1 
19 26 27 1 
20 25 26 1 
21 11 12 1 
22 10 11 1 
23 14 15 1 
24 13 14 1 
ITEM: TIMESTEP
29000
ITEM: NUMBER OF ENTRIES
24
ITEM: BOX BOUNDS pp pp pp
-1.0000000000000000e+01 1.0000000000000000e+01
-1.0000000000000000e+01 1.0000000000000000e+01
-1.0000000000000000e+01 1.0000000000000000e+01
ITEM: ENTRIES index c_bondedatomid1 c_bondedatomid2 c_btype
1 2 3 1 
2 1 2 1 
3 18 28 2 
4 28 29 1 
5 21 29 2 
6 29 30 1 
7 20 21 1 
8 19 20 1 
9 17 18 1 
10 16 17 1 
11 16 29 2 
12 16 19 2 
13 22 23 1 
14 23 24 1 
15 5 6 1 
16 4 5 1 
17 7 8 1 
18 8 9 1 
19 26 27 1 
20 25 26 1 
21 11 12 1 
22 10 11 1 
23 14 15 1 
24 13 14 1 
ITEM: TIMESTEP
29100
ITEM: NUMBER OF ENTRIES
24
ITEM: BOX BOUNDS pp pp pp
-1.0000000000000000e+01 1.0000000000000000e+01
-1.0000000000000000e+01 1.0000000000000000e+01
-1.0000000000000000e+01 1.0000000000000000e+01
ITEM: ENTRIES index c_bondedatomid1 c_bondedatomid2 c_btype
1 1 2 1 
2 2 3 1 
3 28 29 1 
4 21 29 2 
5 29 30 1 
6 20 21 1 
7 4 5 1 
8 18 28 2 
9 17 18 1 
10 19 20 1 
11 16 17 1 
12 16 29 2 
13 16 19 2 
14 5 6 1 
15 7 8 1 
16 8 9 1 
17 22 23 1 
18 23 24 1 
19 11 12 1 
20 26 27 1 
21 25 26 1 
22 10 11 1 
23 14 15 1 
24 13 14 1 
ITEM: TIMESTEP
29200
ITEM: NUMBER OF ENTRIES
24
ITEM: BOX BOUNDS pp pp pp
-1.0000000000000000e+01 1.0000000000000000e+01
-1.0000000000000000e+01 1.0000000000000000e+01
-1.0000000000000000e+01 1.0000000000000000e+01
ITEM: ENTRIES index c_bondedatomid1 c_bondedatomid2 c_btype
1 1 2 1 
2 2 3 1 
3 28 29 1 
4 21 29 2 
5 29 30 1 
6 20 21 1 
7 4 5 1 
8 18 28 2 
9 17 18 1 
10 19 20 1 
11 16 17 1 
12 16 29 2 
13 16 19 2 
14 5 6 1 
15 7 8 1 
16 8 9 1 
17 22 23 1 
18 23 24 1 
19 11 12 1 
20 26 27 1 
21 25 26 1 
22 10 11 1 
23 14 15 1 
24 13 14 1 
ITEM: TIMESTEP
29300
ITEM: NUMBER OF ENTRIES
24
ITEM: BOX BOUNDS pp pp pp
-1.0000000000000000e+01 1.0000000000000000e+01
-1.0000000000000000e+01 1.0000000000000000e+01
-1.0000000000000000e+01 1.0000000000000000e+01
ITEM: ENTRIES index c_bondedatomid1 c_bondedatomid2 c_btype
1 1 2 1 
2 2 3 1 
3 28 29 1 
4 21 29 2 
5 29 30 1 
6 20 21 1 
7 4 5 1 
8 18 28 2 
9 17 18 1 
10 19 20 1 
11 16 17 1 
12 16 29 2 
13 16 19 2 
14 5 6 1 
15 7 8 1 
16 8 9 1 
17 22 23 1 
18 23 24 1 
19 11 12 1 
20 26 27 1 
21 25 26 1 
22 10 11 1 
23 14 15 1 
24 13 14 1 
ITEM: TIMESTEP
29400
ITEM: NUMBER OF ENTRIES
24
ITEM: BOX BOUNDS pp pp pp
-1.0000000000000000e+01 1.0000000000000000e+01
-1.0000000000000000e+01 1.0000000000000000e+01
-1.0000000000000000e+01 1.0000000000000000e+01
ITEM: ENTRIES index c_bondedatomid1 c_bondedatomid2 c_btype
1 1 2 1 
2 2 3 1 
3 28 29 1 
4 21 29 2 
5 29 30 1 
6 20 21 1 
7 4 5 1 
8 18 28 2 
9 17 18 1 
10 19 20 1 
11 16 17 1 
12 16 29 2 
13 16 19 2 
14 5 6 1 
15 7 8 1 
16 8 9 1 
17 22 23 1 
18 23 24 1 
19 11 12 1 
20 26 27 1 
21 25 26 1 
22 10 11 1 
23 14 15 1 
24 13 14 1 
ITEM: TIMESTEP
29500
ITEM: NUMBER OF ENTRIES
24
ITEM: BOX BOUNDS pp pp pp
-1.0000000000000000e+01 1.0000000000000000e+01
-1.0000000000000000e+01 1.0000000000000000e+01
-1.0000000000000000e+01 1.0000000000000000e+01
ITEM: ENTRIES index c_bondedatomid1 c_bondedatomid2 c_btype
1 1 2 1 
2 2 3 1 
3 28 29 1 
4 21 29 2 
5 29 30 1 
6 20 21 1 
7 4 5 1 
8 18 28 2 
9 17 18 1 
10 19 20 1 
11 16 17 1 
12 16 29 2 
13 16 19 2 
14 5 6 1 
15 7 8 1 
16 8 9 1 
17 22 23 1 
18 23 24 1 
19 11 12 1 
20 26 27 1 
21 25 26 1 
22 10 11 1 
23 14 15 1 
24 13 14 1 
ITEM: TIMESTEP
29600
ITEM: NUMBER OF ENTRIES
24
ITEM: BOX BOUNDS pp pp pp
-1.0000000000000000e+01 1.0000000000000000e+01
-1.0000000000000000e+01 1.0000000000000000e+01
-1.0000000000000000e+01 1.0000000000000000e+01
ITEM: ENTRIES index c_bondedatomid1 c_bondedatomid2 c_btype
1 1 2 1 
2 2 3 1 
3 28 29 1 
4 21 29 2 
5 29 30 1 
6 20 21 1 
7 4 5 1 
8 18 28 2 
9 17 18 1 
10 19 20 1 
11 16 17 1 
12 16 29 2 
13 16 19 2 
14 5 6 1 
15 7 8 1 
16 8 9 1 
17 22 23 1 
18 23 24 1 
19 11 12 1 
20 26 27 1 
21 25 26 1 
22 10 11 1 
23 14 15 1 
24 13 14 1 
ITEM: TIMESTEP
29700
ITEM: NUMBER OF ENTRIES
24
ITEM: BOX BOUNDS pp pp pp
-1.0000000000000000e+01 1.0000000000000000e+01
-1.0000000000000000e+01 1.0000000000000000e+01
-1.0000000000000000e+01 1.0000000000000000e+01
ITEM: ENTRIES index c_bondedatomid1 c_bondedatomid2 c_btype
1 1 2 1 
2 2 3 1 
3 28 29 1 
4 21 29 2 
5 29 30 1 
6 20 21 1 
7 4 5 1 
8 18 28 2 
9 17 18 1 
10 19 20 1 
11 16 17 1 
12 16 29 2 
13 16 19 2 
14 5 6 1 
15 7 8 1 
16 8 9 1 
17 22 23 1 
18 23 24 1 
19 11 12 1 
20 26 27 1 
21 25 26 1 
22 10 11 1 
23 14 15 1 
24 13 14 1 
ITEM: TIMESTEP
29800
ITEM: NUMBER OF ENTRIES
24
ITEM: BOX BOUNDS pp pp pp
-1.0000000000000000e+01 1.0000000000000000e+01
-1.0000000000000000e+01 1.0000000000000000e+01
-1.0000000000000000e+01 1.0000000000000000e+01
ITEM: ENTRIES index c_bondedatomid1 c_bondedatomid2 c_btype
1 1 2 1 
2 2 3 1 
3 28 29 1 
4 21 29 2 
5 29 30 1 
6 20 21 1 
7 4 5 1 
8 18 28 2 
9 17 18 1 
10 19 20 1 
11 16 17 1 
12 16 29 2 
13 16 19 2 
14 5 6 1 
15 7 8 1 
16 8 9 1 
17 22 23 1 
18 23 24 1 
19 11 12 1 
20 26 27 1 
21 25 26 1 
22 10 11 1 
23 14 15 1 
24 13 14 1 
ITEM: TIMESTEP
29900
ITEM: NUMBER OF ENTRIES
24
ITEM: BOX BOUNDS pp pp pp
-1.0000000000000000e+01 1.0000000000000000e+01
-1.0000000000000000e+01 1.0000000000000000e+01
-1.0000000000000000e+01 1.0000000000000000e+01
ITEM: ENTRIES index c_bondedatomid1 c_bondedatomid2 c_btype
1 1 2 1 
2 2 3 1 
3 28 29 1 
4 21 29 2 
5 29 30 1 
6 20 21 1 
7 4 5 1 
8 18 28 2 
9 17 18 1 
10 19 20 1 
11 16 17 1 
12 16 29 2 
13 16 19 2 
14 5 6 1 
15 7 8 1 
16 8 9 1 
17 22 23 1 
18 23 24 1 
19 11 12 1 
20 26 27 1 
21 25 26 1 
22 10 11 1 
23 14 15 1 
24 13 14 1 
ITEM: TIMESTEP
30000
ITEM: NUMBER OF ENTRIES
24
ITEM: BOX BOUNDS pp pp pp
-1.0000000000000000e+01 1.0000000000000000e+01
-1.0000000000000000e+01 1.0000000000000000e+01
-1.0000000000000000e+01 1.0000000000000000e+01
ITEM: ENTRIES index c_bondedatomid1 c_bondedatomid2 c_btype
1 1 2 1 
2 2 3 1 
3 28 29 1 
4 21 29 2 
5 29 30 1 
6 20 21 1 
7 4 5 1 
8 18 28 2 
9 17 18 1 
10 19 20 1 
11 16 17 1 
12 16 29 2 
13 16 19 2 
14 5 6 1 
15 7 8 1 
16 8 9 1 
17 22 23 1 
18 23 24 1 
19 11 12 1 
20 26 27 1 
21 25 26 1 
22 10 11 1 
23 14 15 1 
24 13 14 1 
ITEM: TIMESTEP
30100
ITEM: NUMBER OF ENTRIES
24
ITEM: BOX BOUNDS pp pp pp
-1.0000000000000000e+01 1.0000000000000000e+01
-1.0000000000000000e+01 1.0000000000000000e+01
-1.0000000000000000e+01 1.0000000000000000e+01
ITEM: ENTRIES index c_bondedatomid1 c_bondedatomid2 c_btype
1 1 2 1 
2 2 3 1 
3 28 29 1 
4 29 30 1 
5 17 18 1 
6 19 20 1 
7 16 17 1 
8 16 29 2 
9 16 19 2 
10 18 28 2 
11 21 29 2 
12 20 21 1 
13 4 5 1 
14 5 6 1 
15 7 8 1 
16 8 9 1 
17 22 23 1 
18 23 24 1 
19 11 12 1 
20 10 11 1 
21 26 27 1 
22 25 26 1 
23 13 14 1 
24 14 15 1 
ITEM: TIMESTEP
30200
ITEM: NUMBER OF ENTRIES
24
ITEM: BOX BOUNDS pp pp pp
-1.0000000000000000e+01 1.0000000000000000e+01
-1.0000000000000000e+01 1.0000000000000000e+01
-1.0000000000000000e+01 1.0000000000000000e+01
ITEM: ENTRIES index c_bondedatomid1 c_bondedatomid2 c_btype
1 1 2 1 
2 2 3 1 
3 28 29 1 
4 29 30 1 
5 17 18 1 
6 19 20 1 
7 16 17 1 
8 16 29 2 
9 16 19 2 
10 18 28 2 
11 21 29 2 
12 20 21 1 
13 4 5 1 
14 5 6 1 
15 7 8 1 
16 8 9 1 
17 22 23 1 
18 23 24 1 
19 11 12 1 
20 10 11 1 
21 26 27 1 
22 25 26 1 
23 13 14 1 
24 14 15 1 
ITEM: TIMESTEP
30300
ITEM: NUMBER OF ENTRIES
24
ITEM: BOX BOUNDS pp pp pp
-1.0000000000000000e+01 1.0000000000000000e+01
-1.0000000000000000e+01 1.0000000000000000e+01
-1.0000000000000000e+01 1.0000000000000000e+01
ITEM: ENTRIES index c_bondedatomid1 c_bondedatomid2 c_btype
1 1 2 1 
2 2 3 1 
3 28 29 1 
4 29 30 1 
5 17 18 1 
6 19 20 1 
7 16 17 1 
8 16 29 2 
9 16 19 2 
10 18 28 2 
11 21 29 2 
12 20 21 1 
13 4 5 1 
14 5 6 1 
15 7 8 1 
16 8 9 1 
17 22 23 1 
18 23 24 1 
19 11 12 1 
20 10 11 1 
21 26 27 1 
22 25 26 1 
23 13 14 1 
24 14 15 1 
ITEM: TIMESTEP
30400
ITEM: NUMBER OF ENTRIES
24
ITEM: BOX BOUNDS pp pp pp
-1.0000000000000000e+01 1.0000000000000000e+01
-1.0000000000000000e+01 1.0000000000000000e+01
-1.0000000000000000e+01 1.0000000000000000e+01
ITEM: ENTRIES index c_bondedatomid1 c_bondedatomid2 c_btype
1 1 2 1 
2 2 3 1 
3 28 29 1 
4 29 30 1 
5 17 18 1 
6 19 20 1 
7 16 17 1 
8 16 29 2 
9 16 19 2 
10 18 28 2 
11 21 29 2 
12 20 21 1 
13 4 5 1 
14 5 6 1 
15 7 8 1 
16 8 9 1 
17 22 23 1 
18 23 24 1 
19 11 12 1 
20 10 11 1 
21 26 27 1 
22 25 26 1 
23 13 14 1 
24 14 15 1 
ITEM: TIMESTEP
30500
ITEM: NUMBER OF ENTRIES
24
ITEM: BOX BOUNDS pp pp pp
-1.0000000000000000e+01 1.0000000000000000e+01
-1.0000000000000000e+01 1.0000000000000000e+01
-1.0000000000000000e+01 1.0000000000000000e+01
ITEM: ENTRIES index c_bondedatomid1 c_bondedatomid2 c_btype
1 1 2 1 
2 2 3 1 
3 28 29 1 
4 29 30 1 
5 17 18 1 
6 19 20 1 
7 16 17 1 
8 16 29 2 
9 16 19 2 
10 18 28 2 
11 21 29 2 
12 20 21 1 
13 4 5 1 
14 5 6 1 
15 7 8 1 
16 8 9 1 
17 22 23 1 
18 23 24 1 
19 11 12 1 
20 10 11 1 
21 26 27 1 
22 25 26 1 
23 13 14 1 
24 14 15 1 
ITEM: TIMESTEP
30600
ITEM: NUMBER OF ENTRIES
24
ITEM: BOX BOUNDS pp pp pp
-1.0000000000000000e+01 1.0000000000000000e+01
-1.0000000000000000e+01 1.0000000000000000e+01
-1.0000000000000000e+01 1.0000000000000000e+01
ITEM: ENTRIES index c_bondedatomid1 c_bondedatomid2 c_btype
1 1 2 1 
2 2 3 1 
3 28 29 1 
4 29 30 1 
5 17 18 1 
6 19 20 1 
7 16 17 1 
8 16 29 2 
9 16 19 2 
10 18 28 2 
11 21 29 2 
12 20 21 1 
13 4 5 1 
14 5 6 1 
15 7 8 1 
16 8 9 1 
17 22 23 1 
18 23 24 1 
19 11 12 1 
20 10 11 1 
21 26 27 1 
22 25 26 1 
23 13 14 1 
24 14 15 1 
ITEM: TIMESTEP
30700
ITEM: NUMBER OF ENTRIES
24
ITEM: BOX BOUNDS pp pp pp
-1.0000000000000000e+01 1.0000000000000000e+01
-1.0000000000000000e+01 1.0000000000000000e+01
-1.0000000000000000e+01 1.0000000000000000e+01
ITEM: ENTRIES index c_bondedatomid1 c_bondedatomid2 c_btype
1 1 2 1 
2 2 3 1 
3 28 29 1 
4 29 30 1 
5 17 18 1 
6 19 20 1 
7 16 17 1 
8 16 29 2 
9 16 19 2 
10 18 28 2 
11 21 29 2 
12 20 21 1 
13 4 5 1 
14 5 6 1 
15 7 8 1 
16 8 9 1 
17 22 23 1 
18 23 24 1 
19 11 12 1 
20 10 11 1 
21 26 27 1 
22 25 26 1 
23 13 14 1 
24 14 15 1 
ITEM: TIMESTEP
30800
ITEM: NUMBER OF ENTRIES
24
ITEM: BOX BOUNDS pp pp pp
-1.0000000000000000e+01 1.0000000000000000e+01
-1.0000000000000000e+01 1.0000000000000000e+01
-1.0000000000000000e+01 1.0000000000000000e+01
ITEM: ENTRIES index c_bondedatomid1 c_bondedatomid2 c_btype
1 1 2 1 
2 2 3 1 
3 28 29 1 
4 29 30 1 
5 17 18 1 
6 19 20 1 
7 16 17 1 
8 16 29 2 
9 16 19 2 
10 18 28 2 
11 21 29 2 
12 20 21 1 
13 4 5 1 
14 5 6 1 
15 7 8 1 
16 8 9 1 
17 22 23 1 
18 23 24 1 
19 11 12 1 
20 10 11 1 
21 26 27 1 
22 25 26 1 
23 13 14 1 
24 14 15 1 
ITEM: TIMESTEP
30900
ITEM: NUMBER OF ENTRIES
24
ITEM: BOX BOUNDS pp pp pp
-1.0000000000000000e+01 1.0000000000000000e+01
-1.0000000000000000e+01 1.0000000000000000e+01
-1.0000000000000000e+01 1.0000000000000000e+01
ITEM: ENTRIES index c_bondedatomid1 c_bondedatomid2 c_btype
1 1 2 1 
2 2 3 1 
3 28 29 1 
4 29 30 1 
5 17 18 1 
6 19 20 1 
7 16 17 1 
8 16 29 2 
9 16 19 2 
10 18 28 2 
11 21 29 2 
12 20 21 1 
13 4 5 1 
14 5 6 1 
15 7 8 1 
16 8 9 1 
17 22 23 1 
18 23 24 1 
19 11 12 1 
20 10 11 1 
21 26 27 1 
22 25 26 1 
23 13 14 1 
24 14 15 1 
ITEM: TIMESTEP
31000
ITEM: NUMBER OF ENTRIES
24
ITEM: BOX BOUNDS pp pp pp
-1.0000000000000000e+01 1.0000000000000000e+01
-1.0000000000000000e+01 1.0000000000000000e+01
-1.0000000000000000e+01 1.0000000000000000e+01
ITEM: ENTRIES index c_bondedatomid1 c_bondedatomid2 c_btype
1 1 2 1 
2 2 3 1 
3 28 29 1 
4 29 30 1 
5 17 18 1 
6 19 20 1 
7 16 17 1 
8 16 29 2 
9 16 19 2 
10 18 28 2 
11 21 29 2 
12 20 21 1 
13 4 5 1 
14 5 6 1 
15 7 8 1 
16 8 9 1 
17 22 23 1 
18 23 24 1 
19 11 12 1 
20 10 11 1 
21 26 27 1 
22 25 26 1 
23 13 14 1 
24 14 15 1 
ITEM: TIMESTEP
31100
ITEM: NUMBER OF ENTRIES
24
ITEM: BOX BOUNDS pp pp pp
-1.0000000000000000e+01 1.0000000000000000e+01
-1.0000000000000000e+01 1.0000000000000000e+01
-1.0000000000000000e+01 1.0000000000000000e+01
ITEM: ENTRIES index c_bondedatomid1 c_bondedatomid2 c_btype
1 1 2 1 
2 2 3 1 
3 28 29 1 
4 29 30 1 
5 17 18 1 
6 19 20 1 
7 16 17 1 
8 16 29 2 
9 16 19 2 
10 18 28 2 
11 21 29 2 
12 20 21 1 
13 4 5 1 
14 5 6 1 
15 7 8 1 
16 8 9 1 
17 22 23 1 
18 23 24 1 
19 11 12 1 
20 10 11 1 
21 26 27 1 
22 25 26 1 
23 13 14 1 
24 14 15 1 
ITEM: TIMESTEP
31200
ITEM: NUMBER OF ENTRIES
24
ITEM: BOX BOUNDS pp pp pp
-1.0000000000000000e+01 1.0000000000000000e+01
-1.0000000000000000e+01 1.0000000000000000e+01
-1.0000000000000000e+01 1.0000000000000000e+01
ITEM: ENTRIES index c_bondedatomid1 c_bondedatomid2 c_btype
1 1 2 1 
2 2 3 1 
3 28 29 1 
4 29 30 1 
5 17 18 1 
6 16 17 1 
7 16 29 2 
8 16 19 2 
9 18 28 2 
10 19 20 1 
11 4 5 1 
12 21 29 2 
13 20 21 1 
14 5 6 1 
15 8 9 1 
16 7 8 1 
17 22 23 1 
18 23 24 1 
19 11 12 1 
20 10 11 1 
21 25 26 1 
22 26 27 1 
23 13 14 1 
24 14 15 1 
ITEM: TIMESTEP
31300
ITEM: NUMBER OF ENTRIES
24
ITEM: BOX BOUNDS pp pp pp
-1.0000000000000000e+01 1.0000000000000000e+01
-1.0000000000000000e+01 1.0000000000000000e+01
-1.0000000000000000e+01 1.0000000000000000e+01
ITEM: ENTRIES index c_bondedatomid1 c_bondedatomid2 c_btype
1 1 2 1 
2 2 3 1 
3 28 29 1 
4 29 30 1 
5 17 18 1 
6 16 17 1 
7 16 29 2 
8 16 19 2 
9 18 28 2 
10 19 20 1 
11 4 5 1 
12 21 29 2 
13 20 21 1 
14 5 6 1 
15 8 9 1 
16 7 8 1 
17 22 23 1 
18 23 24 1 
19 11 12 1 
20 10 11 1 
21 25 26 1 
22 26 27 1 
23 13 14 1 
24 14 15 1 
ITEM: TIMESTEP
31400
ITEM: NUMBER OF ENTRIES
24
ITEM: BOX BOUNDS pp pp pp
-1.0000000000000000e+01 1.0000000000000000e+01
-1.0000000000000000e+01 1.0000000000000000e+01
-1.0000000000000000e+01 1.0000000000000000e+01
ITEM: ENTRIES index c_bondedatomid1 c_bondedatomid2 c_btype
1 1 2 1 
2 2 3 1 
3 28 29 1 
4 29 30 1 
5 17 18 1 
6 16 17 1 
7 16 29 2 
8 16 19 2 
9 18 28 2 
10 19 20 1 
11 4 5 1 
12 21 29 2 
13 20 21 1 
14 5 6 1 
15 8 9 1 
16 7 8 1 
17 22 23 1 
18 23 24 1 
19 11 12 1 
20 10 11 1 
21 25 26 1 
22 26 27 1 
23 13 14 1 
24 14 15 1 
ITEM: TIMESTEP
31500
ITEM: NUMBER OF ENTRIES
24
ITEM: BOX BOUNDS pp pp pp
-1.0000000000000000e+01 1.0000000000000000e+01
-1.0000000000000000e+01 1.0000000000000000e+01
-1.0000000000000000e+01 1.0000000000000000e+01
ITEM: ENTRIES index c_bondedatomid1 c_bondedatomid2 c_btype
1 1 2 1 
2 2 3 1 
3 28 29 1 
4 29 30 1 
5 17 18 1 
6 16 17 1 
7 16 29 2 
8 16 19 2 
9 18 28 2 
10 19 20 1 
11 4 5 1 
12 21 29 2 
13 20 21 1 
14 5 6 1 
15 8 9 1 
16 7 8 1 
17 22 23 1 
18 23 24 1 
19 11 12 1 
20 10 11 1 
21 25 26 1 
22 26 27 1 
23 13 14 1 
24 14 15 1 
ITEM: TIMESTEP
31600
ITEM: NUMBER OF ENTRIES
24
ITEM: BOX BOUNDS pp pp pp
-1.0000000000000000e+01 1.0000000000000000e+01
-1.0000000000000000e+01 1.0000000000000000e+01
-1.0000000000000000e+01 1.0000000000000000e+01
ITEM: ENTRIES index c_bondedatomid1 c_bondedatomid2 c_btype
1 1 2 1 
2 2 3 1 
3 28 29 1 
4 29 30 1 
5 17 18 1 
6 16 17 1 
7 16 29 2 
8 16 19 2 
9 18 28 2 
10 19 20 1 
11 4 5 1 
12 21 29 2 
13 20 21 1 
14 5 6 1 
15 8 9 1 
16 7 8 1 
17 22 23 1 
18 23 24 1 
19 11 12 1 
20 10 11 1 
21 25 26 1 
22 26 27 1 
23 13 14 1 
24 14 15 1 
ITEM: TIMESTEP
31700
ITEM: NUMBER OF ENTRIES
24
ITEM: BOX BOUNDS pp pp pp
-1.0000000000000000e+01 1.0000000000000000e+01
-1.0000000000000000e+01 1.0000000000000000e+01
-1.0000000000000000e+01 1.0000000000000000e+01
ITEM: ENTRIES index c_bondedatomid1 c_bondedatomid2 c_btype
1 1 2 1 
2 2 3 1 
3 28 29 1 
4 29 30 1 
5 17 18 1 
6 16 17 1 
7 16 29 2 
8 16 19 2 
9 18 28 2 
10 19 20 1 
11 4 5 1 
12 21 29 2 
13 20 21 1 
14 5 6 1 
15 8 9 1 
16 7 8 1 
17 22 23 1 
18 23 24 1 
19 11 12 1 
20 10 11 1 
21 25 26 1 
22 26 27 1 
23 13 14 1 
24 14 15 1 
ITEM: TIMESTEP
31800
ITEM: NUMBER OF ENTRIES
24
ITEM: BOX BOUNDS pp pp pp
-1.0000000000000000e+01 1.0000000000000000e+01
-1.0000000000000000e+01 1.0000000000000000e+01
-1.0000000000000000e+01 1.0000000000000000e+01
ITEM: ENTRIES index c_bondedatomid1 c_bondedatomid2 c_btype
1 1 2 1 
2 2 3 1 
3 28 29 1 
4 29 30 1 
5 17 18 1 
6 16 17 1 
7 16 29 2 
8 16 19 2 
9 18 28 2 
10 19 20 1 
11 4 5 1 
12 21 29 2 
13 20 21 1 
14 5 6 1 
15 8 9 1 
16 7 8 1 
17 22 23 1 
18 23 24 1 
19 11 12 1 
20 10 11 1 
21 25 26 1 
22 26 27 1 
23 13 14 1 
24 14 15 1 
ITEM: TIMESTEP
31900
ITEM: NUMBER OF ENTRIES
24
ITEM: BOX BOUNDS pp pp pp
-1.0000000000000000e+01 1.0000000000000000e+01
-1.0000000000000000e+01 1.0000000000000000e+01
-1.0000000000000000e+01 1.0000000000000000e+01
ITEM: ENTRIES index c_bondedatomid1 c_bondedatomid2 c_btype
1 1 2 1 
2 2 3 1 
3 28 29 1 
4 29 30 1 
5 17 18 1 
6 16 17 1 
7 16 29 2 
8 16 19 2 
9 18 28 2 
10 19 20 1 
11 4 5 1 
12 21 29 2 
13 20 21 1 
14 5 6 1 
15 8 9 1 
16 7 8 1 
17 22 23 1 
18 23 24 1 
19 11 12 1 
20 10 11 1 
21 25 26 1 
22 26 27 1 
23 13 14 1 
24 14 15 1 
ITEM: TIMESTEP
32000
ITEM: NUMBER OF ENTRIES
24
ITEM: BOX BOUNDS pp pp pp
-1.0000000000000000e+01 1.0000000000000000e+01
-1.0000000000000000e+01 1.0000000000000000e+01
-1.0000000000000000e+01 1.0000000000000000e+01
ITEM: ENTRIES index c_bondedatomid1 c_bondedatomid2 c_btype
1 1 2 1 
2 2 3 1 
3 28 29 1 
4 29 30 1 
5 17 18 1 
6 16 17 1 
7 16 29 2 
8 16 19 2 
9 18 28 2 
10 19 20 1 
11 4 5 1 
12 21 29 2 
13 20 21 1 
14 5 6 1 
15 8 9 1 
16 7 8 1 
17 22 23 1 
18 23 24 1 
19 11 12 1 
20 10 11 1 
21 25 26 1 
22 26 27 1 
23 13 14 1 
24 14 15 1 
ITEM: TIMESTEP
32100
ITEM: NUMBER OF ENTRIES
24
ITEM: BOX BOUNDS pp pp pp
-1.0000000000000000e+01 1.0000000000000000e+01
-1.0000000000000000e+01 1.0000000000000000e+01
-1.0000000000000000e+01 1.0000000000000000e+01
ITEM: ENTRIES index c_bondedatomid1 c_bondedatomid2 c_btype
1 1 2 1 
2 2 3 1 
3 28 29 1 
4 29 30 1 
5 17 18 1 
6 16 17 1 
7 16 29 2 
8 16 19 2 
9 18 28 2 
10 21 29 2 
11 19 20 1 
12 20 21 1 
13 4 5 1 
14 5 6 1 
15 8 9 1 
16 7 8 1 
17 22 23 1 
18 23 24 1 
19 11 12 1 
20 10 11 1 
21 25 26 1 
22 26 27 1 
23 13 14 1 
24 14 15 1 
ITEM: TIMESTEP
32200
ITEM: NUMBER OF ENTRIES
24
ITEM: BOX BOUNDS pp pp pp
-1.0000000000000000e+01 1.0000000000000000e+01
-1.0000000000000000e+01 1.0000000000000000e+01
-1.0000000000000000e+01 1.0000000000000000e+01
ITEM: ENTRIES index c_bondedatomid1 c_bondedatomid2 c_btype
1 1 2 1 
2 2 3 1 
3 28 29 1 
4 29 30 1 
5 17 18 1 
6 16 17 1 
7 16 29 2 
8 16 19 2 
9 18 28 2 
10 21 29 2 
11 19 20 1 
12 20 21 1 
13 4 5 1 
14 5 6 1 
15 8 9 1 
16 7 8 1 
17 22 23 1 
18 23 24 1 
19 11 12 1 
20 10 11 1 
21 25 26 1 
22 26 27 1 
23 13 14 1 
24 14 15 1 
ITEM: TIMESTEP
32300
ITEM: NUMBER OF ENTRIES
24
ITEM: BOX BOUNDS pp pp pp
-1.0000000000000000e+01 1.0000000000000000e+01
-1.0000000000000000e+01 1.0000000000000000e+01
-1.0000000000000000e+01 1.0000000000000000e+01
ITEM: ENTRIES index c_bondedatomid1 c_bondedatomid2 c_btype
1 1 2 1 
2 2 3 1 
3 28 29 1 
4 29 30 1 
5 17 18 1 
6 16 17 1 
7 16 29 2 
8 16 19 2 
9 18 28 2 
10 21 29 2 
11 19 20 1 
12 20 21 1 
13 4 5 1 
14 5 6 1 
15 8 9 1 
16 7 8 1 
17 22 23 1 
18 23 24 1 
19 11 12 1 
20 10 11 1 
21 25 26 1 
22 26 27 1 
23 13 14 1 
24 14 15 1 
ITEM: TIMESTEP
32400
ITEM: NUMBER OF ENTRIES
24
ITEM: BOX BOUNDS pp pp pp
-1.0000000000000000e+01 1.0000000000000000e+01
-1.0000000000000000e+01 1.0000000000000000e+01
-1.0000000000000000e+01 1.0000000000000000e+01
ITEM: ENTRIES index c_bondedatomid1 c_bondedatomid2 c_btype
1 1 2 1 
2 2 3 1 
3 28 29 1 
4 29 30 1 
5 17 18 1 
6 16 17 1 
7 16 29 2 
8 16 19 2 
9 18 28 2 
10 21 29 2 
11 19 20 1 
12 20 21 1 
13 4 5 1 
14 5 6 1 
15 8 9 1 
16 7 8 1 
17 22 23 1 
18 23 24 1 
19 11 12 1 
20 10 11 1 
21 25 26 1 
22 26 27 1 
23 13 14 1 
24 14 15 1 
ITEM: TIMESTEP
32500
ITEM: NUMBER OF ENTRIES
24
ITEM: BOX BOUNDS pp pp pp
-1.0000000000000000e+01 1.0000000000000000e+01
-1.0000000000000000e+01 1.0000000000000000e+01
-1.0000000000000000e+01 1.0000000000000000e+01
ITEM: ENTRIES index c_bondedatomid1 c_bondedatomid2 c_btype
1 1 2 1 
2 2 3 1 
3 28 29 1 
4 29 30 1 
5 17 18 1 
6 16 17 1 
7 16 29 2 
8 16 19 2 
9 18 28 2 
10 21 29 2 
11 19 20 1 
12 20 21 1 
13 4 5 1 
14 5 6 1 
15 8 9 1 
16 7 8 1 
17 22 23 1 
18 23 24 1 
19 11 12 1 
20 10 11 1 
21 25 26 1 
22 26 27 1 
23 13 14 1 
24 14 15 1 
ITEM: TIMESTEP
32600
ITEM: NUMBER OF ENTRIES
24
ITEM: BOX BOUNDS pp pp pp
-1.0000000000000000e+01 1.0000000000000000e+01
-1.0000000000000000e+01 1.0000000000000000e+01
-1.0000000000000000e+01 1.0000000000000000e+01
ITEM: ENTRIES index c_bondedatomid1 c_bondedatomid2 c_btype
1 1 2 1 
2 2 3 1 
3 28 29 1 
4 29 30 1 
5 17 18 1 
6 16 17 1 
7 16 29 2 
8 16 19 2 
9 18 28 2 
10 21 29 2 
11 19 20 1 
12 20 21 1 
13 4 5 1 
14 5 6 1 
15 8 9 1 
16 7 8 1 
17 22 23 1 
18 23 24 1 
19 11 12 1 
20 10 11 1 
21 25 26 1 
22 26 27 1 
23 13 14 1 
24 14 15 1 
ITEM: TIMESTEP
32700
ITEM: NUMBER OF ENTRIES
24
ITEM: BOX BOUNDS pp pp pp
-1.0000000000000000e+01 1.0000000000000000e+01
-1.0000000000000000e+01 1.0000000000000000e+01
-1.0000000000000000e+01 1.0000000000000000e+01
ITEM: ENTRIES index c_bondedatomid1 c_bondedatomid2 c_btype
1 1 2 1 
2 2 3 1 
3 28 29 1 
4 29 30 1 
5 17 18 1 
6 16 17 1 
7 16 29 2 
8 16 19 2 
9 18 28 2 
10 21 29 2 
11 19 20 1 
12 20 21 1 
13 4 5 1 
14 5 6 1 
15 8 9 1 
16 7 8 1 
17 22 23 1 
18 23 24 1 
19 11 12 1 
20 10 11 1 
21 25 26 1 
22 26 27 1 
23 13 14 1 
24 14 15 1 
ITEM: TIMESTEP
32800
ITEM: NUMBER OF ENTRIES
25
ITEM: BOX BOUNDS pp pp pp
-1.0000000000000000e+01 1.0000000000000000e+01
-1.0000000000000000e+01 1.0000000000000000e+01
-1.0000000000000000e+01 1.0000000000000000e+01
ITEM: ENTRIES index c_bondedatomid1 c_bondedatomid2 c_btype
1 1 2 1 
2 2 3 1 
3 28 29 1 
4 29 30 1 
5 17 18 1 
6 16 17 1 
7 16 29 2 
8 16 19 2 
9 18 28 2 
10 18 20 2 
11 21 29 2 
12 19 20 1 
13 20 21 1 
14 4 5 1 
15 5 6 1 
16 8 9 1 
17 7 8 1 
18 22 23 1 
19 23 24 1 
20 11 12 1 
21 10 11 1 
22 25 26 1 
23 26 27 1 
24 13 14 1 
25 14 15 1 
ITEM: TIMESTEP
32900
ITEM: NUMBER OF ENTRIES
25
ITEM: BOX BOUNDS pp pp pp
-1.0000000000000000e+01 1.0000000000000000e+01
-1.0000000000000000e+01 1.0000000000000000e+01
-1.0000000000000000e+01 1.0000000000000000e+01
ITEM: ENTRIES index c_bondedatomid1 c_bondedatomid2 c_btype
1 1 2 1 
2 2 3 1 
3 28 29 1 
4 29 30 1 
5 17 18 1 
6 16 17 1 
7 16 29 2 
8 16 19 2 
9 18 28 2 
10 18 20 2 
11 21 29 2 
12 19 20 1 
13 20 21 1 
14 4 5 1 
15 5 6 1 
16 8 9 1 
17 7 8 1 
18 22 23 1 
19 23 24 1 
20 11 12 1 
21 10 11 1 
22 25 26 1 
23 26 27 1 
24 13 14 1 
25 14 15 1 
ITEM: TIMESTEP
33000
ITEM: NUMBER OF ENTRIES
25
ITEM: BOX BOUNDS pp pp pp
-1.0000000000000000e+01 1.0000000000000000e+01
-1.0000000000000000e+01 1.0000000000000000e+01
-1.0000000000000000e+01 1.0000000000000000e+01
ITEM: ENTRIES index c_bondedatomid1 c_bondedatomid2 c_btype
1 1 2 1 
2 2 3 1 
3 28 29 1 
4 29 30 1 
5 17 18 1 
6 16 17 1 
7 16 29 2 
8 16 19 2 
9 18 28 2 
10 18 20 2 
11 21 29 2 
12 19 20 1 
13 20 21 1 
14 4 5 1 
15 5 6 1 
16 8 9 1 
17 7 8 1 
18 22 23 1 
19 23 24 1 
20 11 12 1 
21 10 11 1 
22 25 26 1 
23 26 27 1 
24 13 14 1 
25 14 15 1 
ITEM: TIMESTEP
33100
ITEM: NUMBER OF ENTRIES
25
ITEM: BOX BOUNDS pp pp pp
-1.0000000000000000e+01 1.0000000000000000e+01
-1.0000000000000000e+01 1.0000000000000000e+01
-1.0000000000000000e+01 1.0000000000000000e+01
ITEM: ENTRIES index c_bondedatomid1 c_bondedatomid2 c_btype
1 1 2 1 
2 2 3 1 
3 28 29 1 
4 29 30 1 
5 17 18 1 
6 21 29 2 
7 14 15 1 
8 16 17 1 
9 16 29 2 
10 16 19 2 
11 18 28 2 
12 18 20 2 
13 19 20 1 
14 20 21 1 
15 4 5 1 
16 5 6 1 
17 7 8 1 
18 8 9 1 
19 23 24 1 
20 22 23 1 
21 10 11 1 
22 11 12 1 
23 25 26 1 
24 26 27 1 
25 13 14 1 
ITEM: TIMESTEP
33200
ITEM: NUMBER OF ENTRIES
25
ITEM: BOX BOUNDS pp pp pp
-1.0000000000000000e+01 1.0000000000000000e+01
-1.0000000000000000e+01 1.0000000000000000e+01
-1.0000000000000000e+01 1.0000000000000000e+01
ITEM: ENTRIES index c_bondedatomid1 c_bondedatomid2 c_btype
1 1 2 1 
2 2 3 1 
3 28 29 1 
4 29 30 1 
5 17 18 1 
6 21 29 2 
7 14 15 1 
8 16 17 1 
9 16 29 2 
10 16 19 2 
11 18 28 2 
12 18 20 2 
13 19 20 1 
14 20 21 1 
15 4 5 1 
16 5 6 1 
17 7 8 1 
18 8 9 1 
19 23 24 1 
20 22 23 1 
21 10 11 1 
22 11 12 1 
23 25 26 1 
24 26 27 1 
25 13 14 1 
ITEM: TIMESTEP
33300
ITEM: NUMBER OF ENTRIES
25
ITEM: BOX BOUNDS pp pp pp
-1.0000000000000000e+01 1.0000000000000000e+01
-1.0000000000000000e+01 1.0000000000000000e+01
-1.0000000000000000e+01 1.0000000000000000e+01
ITEM: ENTRIES index c_bondedatomid1 c_bondedatomid2 c_btype
1 1 2 1 
2 2 3 1 
3 28 29 1 
4 29 30 1 
5 17 18 1 
6 21 29 2 
7 14 15 1 
8 16 17 1 
9 16 29 2 
10 16 19 2 
11 18 28 2 
12 18 20 2 
13 19 20 1 
14 20 21 1 
15 4 5 1 
16 5 6 1 
17 7 8 1 
18 8 9 1 
19 23 24 1 
20 22 23 1 
21 10 11 1 
22 11 12 1 
23 25 26 1 
24 26 27 1 
25 13 14 1 
ITEM: TIMESTEP
33400
ITEM: NUMBER OF ENTRIES
25
ITEM: BOX BOUNDS pp pp pp
-1.0000000000000000e+01 1.0000000000000000e+01
-1.0000000000000000e+01 1.0000000000000000e+01
-1.0000000000000000e+01 1.0000000000000000e+01
ITEM: ENTRIES index c_bondedatomid1 c_bondedatomid2 c_btype
1 1 2 1 
2 2 3 1 
3 28 29 1 
4 29 30 1 
5 17 18 1 
6 21 29 2 
7 14 15 1 
8 16 17 1 
9 16 29 2 
10 16 19 2 
11 18 28 2 
12 18 20 2 
13 19 20 1 
14 20 21 1 
15 4 5 1 
16 5 6 1 
17 7 8 1 
18 8 9 1 
19 23 24 1 
20 22 23 1 
21 10 11 1 
22 11 12 1 
23 25 26 1 
24 26 27 1 
25 13 14 1 
ITEM: TIMESTEP
33500
ITEM: NUMBER OF ENTRIES
25
ITEM: BOX BOUNDS pp pp pp
-1.0000000000000000e+01 1.0000000000000000e+01
-1.0000000000000000e+01 1.0000000000000000e+01
-1.0000000000000000e+01 1.0000000000000000e+01
ITEM: ENTRIES index c_bondedatomid1 c_bondedatomid2 c_btype
1 1 2 1 
2 2 3 1 
3 28 29 1 
4 29 30 1 
5 17 18 1 
6 21 29 2 
7 14 15 1 
8 16 17 1 
9 16 29 2 
10 16 19 2 
11 18 28 2 
12 18 20 2 
13 19 20 1 
14 20 21 1 
15 4 5 1 
16 5 6 1 
17 7 8 1 
18 8 9 1 
19 23 24 1 
20 22 23 1 
21 10 11 1 
22 11 12 1 
23 25 26 1 
24 26 27 1 
25 13 14 1 
ITEM: TIMESTEP
33600
ITEM: NUMBER OF ENTRIES
25
ITEM: BOX BOUNDS pp pp pp
-1.0000000000000000e+01 1.0000000000000000e+01
-1.0000000000000000e+01 1.0000000000000000e+01
-1.0000000000000000e+01 1.0000000000000000e+01
ITEM: ENTRIES index c_bondedatomid1 c_bondedatomid2 c_btype
1 1 2 1 
2 2 3 1 
3 28 29 1 
4 29 30 1 
5 17 18 1 
6 21 29 2 
7 14 15 1 
8 16 17 1 
9 16 29 2 
10 16 19 2 
11 18 28 2 
12 18 20 2 
13 19 20 1 
14 20 21 1 
15 4 5 1 
16 5 6 1 
17 7 8 1 
18 8 9 1 
19 23 24 1 
20 22 23 1 
21 10 11 1 
22 11 12 1 
23 25 26 1 
24 26 27 1 
25 13 14 1 
ITEM: TIMESTEP
33700
ITEM: NUMBER OF ENTRIES
25
ITEM: BOX BOUNDS pp pp pp
-1.0000000000000000e+01 1.0000000000000000e+01
-1.0000000000000000e+01 1.0000000000000000e+01
-1.0000000000000000e+01 1.0000000000000000e+01
ITEM: ENTRIES index c_bondedatomid1 c_bondedatomid2 c_btype
1 1 2 1 
2 2 3 1 
3 28 29 1 
4 29 30 1 
5 17 18 1 
6 21 29 2 
7 14 15 1 
8 16 17 1 
9 16 29 2 
10 16 19 2 
11 18 28 2 
12 18 20 2 
13 19 20 1 
14 20 21 1 
15 4 5 1 
16 5 6 1 
17 7 8 1 
18 8 9 1 
19 23 24 1 
20 22 23 1 
21 10 11 1 
22 11 12 1 
23 25 26 1 
24 26 27 1 
25 13 14 1 
ITEM: TIMESTEP
33800
ITEM: NUMBER OF ENTRIES
25
ITEM: BOX BOUNDS pp pp pp
-1.0000000000000000e+01 1.0000000000000000e+01
-1.0000000000000000e+01 1.0000000000000000e+01
-1.0000000000000000e+01 1.0000000000000000e+01
ITEM: ENTRIES index c_bondedatomid1 c_bondedatomid2 c_btype
1 1 2 1 
2 2 3 1 
3 28 29 1 
4 29 30 1 
5 17 18 1 
6 21 29 2 
7 14 15 1 
8 16 17 1 
9 16 29 2 
10 16 19 2 
11 18 28 2 
12 18 20 2 
13 19 20 1 
14 20 21 1 
15 4 5 1 
16 5 6 1 
17 7 8 1 
18 8 9 1 
19 23 24 1 
20 22 23 1 
21 10 11 1 
22 11 12 1 
23 25 26 1 
24 26 27 1 
25 13 14 1 
ITEM: TIMESTEP
33900
ITEM: NUMBER OF ENTRIES
25
ITEM: BOX BOUNDS pp pp pp
-1.0000000000000000e+01 1.0000000000000000e+01
-1.0000000000000000e+01 1.0000000000000000e+01
-1.0000000000000000e+01 1.0000000000000000e+01
ITEM: ENTRIES index c_bondedatomid1 c_bondedatomid2 c_btype
1 1 2 1 
2 2 3 1 
3 28 29 1 
4 29 30 1 
5 17 18 1 
6 21 29 2 
7 14 15 1 
8 16 17 1 
9 16 29 2 
10 16 19 2 
11 18 28 2 
12 18 20 2 
13 19 20 1 
14 20 21 1 
15 4 5 1 
16 5 6 1 
17 7 8 1 
18 8 9 1 
19 23 24 1 
20 22 23 1 
21 10 11 1 
22 11 12 1 
23 25 26 1 
24 26 27 1 
25 13 14 1 
ITEM: TIMESTEP
34000
ITEM: NUMBER OF ENTRIES
25
ITEM: BOX BOUNDS pp pp pp
-1.0000000000000000e+01 1.0000000000000000e+01
-1.0000000000000000e+01 1.0000000000000000e+01
-1.0000000000000000e+01 1.0000000000000000e+01
ITEM: ENTRIES index c_bondedatomid1 c_bondedatomid2 c_btype
1 1 2 1 
2 2 3 1 
3 28 29 1 
4 29 30 1 
5 17 18 1 
6 21 29 2 
7 14 15 1 
8 16 17 1 
9 16 29 2 
10 16 19 2 
11 18 28 2 
12 18 20 2 
13 19 20 1 
14 20 21 1 
15 4 5 1 
16 5 6 1 
17 7 8 1 
18 8 9 1 
19 23 24 1 
20 22 23 1 
21 10 11 1 
22 11 12 1 
23 25 26 1 
24 26 27 1 
25 13 14 1 
ITEM: TIMESTEP
34100
ITEM: NUMBER OF ENTRIES
25
ITEM: BOX BOUNDS pp pp pp
-1.0000000000000000e+01 1.0000000000000000e+01
-1.0000000000000000e+01 1.0000000000000000e+01
-1.0000000000000000e+01 1.0000000000000000e+01
ITEM: ENTRIES index c_bondedatomid1 c_bondedatomid2 c_btype
1 1 2 1 
2 2 3 1 
3 28 29 1 
4 17 18 1 
5 21 29 2 
6 16 17 1 
7 16 29 2 
8 16 19 2 
9 18 28 2 
10 18 20 2 
11 20 21 1 
12 29 30 1 
13 19 20 1 
14 4 5 1 
15 5 6 1 
16 7 8 1 
17 8 9 1 
18 23 24 1 
19 22 23 1 
20 11 12 1 
21 10 11 1 
22 25 26 1 
23 26 27 1 
24 14 15 1 
25 13 14 1 
ITEM: TIMESTEP
34200
ITEM: NUMBER OF ENTRIES
25
ITEM: BOX BOUNDS pp pp pp
-1.0000000000000000e+01 1.0000000000000000e+01
-1.0000000000000000e+01 1.0000000000000000e+01
-1.0000000000000000e+01 1.0000000000000000e+01
ITEM: ENTRIES index c_bondedatomid1 c_bondedatomid2 c_btype
1 1 2 1 
2 2 3 1 
3 28 29 1 
4 17 18 1 
5 21 29 2 
6 16 17 1 
7 16 29 2 
8 16 19 2 
9 18 28 2 
10 18 20 2 
11 20 21 1 
12 29 30 1 
13 19 20 1 
14 4 5 1 
15 5 6 1 
16 7 8 1 
17 8 9 1 
18 23 24 1 
19 22 23 1 
20 11 12 1 
21 10 11 1 
22 25 26 1 
23 26 27 1 
24 14 15 1 
25 13 14 1 
ITEM: TIMESTEP
34300
ITEM: NUMBER OF ENTRIES
25
ITEM: BOX BOUNDS pp pp pp
-1.0000000000000000e+01 1.0000000000000000e+01
-1.0000000000000000e+01 1.0000000000000000e+01
-1.0000000000000000e+01 1.0000000000000000e+01
ITEM: ENTRIES index c_bondedatomid1 c_bondedatomid2 c_btype
1 1 2 1 
2 2 3 1 
3 28 29 1 
4 17 18 1 
5 21 29 2 
6 16 17 1 
7 16 29 2 
8 16 19 2 
9 18 28 2 
10 18 20 2 
11 20 21 1 
12 29 30 1 
13 19 20 1 
14 4 5 1 
15 5 6 1 
16 7 8 1 
17 8 9 1 
18 23 24 1 
19 22 23 1 
20 11 12 1 
21 10 11 1 
22 25 26 1 
23 26 27 1 
24 14 15 1 
25 13 14 1 
ITEM: TIMESTEP
34400
ITEM: NUMBER OF ENTRIES
25
ITEM: BOX BOUNDS pp pp pp
-1.0000000000000000e+01 1.0000000000000000e+01
-1.0000000000000000e+01 1.0000000000000000e+01
-1.0000000000000000e+01 1.0000000000000000e+01
ITEM: ENTRIES index c_bondedatomid1 c_bondedatomid2 c_btype
1 1 2 1 
2 2 3 1 
3 28 29 1 
4 17 18 1 
5 21 29 2 
6 16 17 1 
7 16 29 2 
8 16 19 2 
9 18 28 2 
10 18 20 2 
11 20 21 1 
12 29 30 1 
13 19 20 1 
14 4 5 1 
15 5 6 1 
16 7 8 1 
17 8 9 1 
18 23 24 1 
19 22 23 1 
20 11 12 1 
21 10 11 1 
22 25 26 1 
23 26 27 1 
24 14 15 1 
25 13 14 1 
ITEM: TIMESTEP
34500
ITEM: NUMBER OF ENTRIES
25
ITEM: BOX BOUNDS pp pp pp
-1.0000000000000000e+01 1.0000000000000000e+01
-1.0000000000000000e+01 1.0000000000000000e+01
-1.0000000000000000e+01 1.0000000000000000e+01
ITEM: ENTRIES index c_bondedatomid1 c_bondedatomid2 c_btype
1 1 2 1 
2 2 3 1 
3 28 29 1 
4 17 18 1 
5 21 29 2 
6 16 17 1 
7 16 29 2 
8 16 19 2 
9 18 28 2 
10 18 20 2 
11 20 21 1 
12 29 30 1 
13 19 20 1 
14 4 5 1 
15 5 6 1 
16 7 8 1 
17 8 9 1 
18 23 24 1 
19 22 23 1 
20 11 12 1 
21 10 11 1 
22 25 26 1 
23 26 27 1 
24 14 15 1 
25 13 14 1 
ITEM: TIMESTEP
34600
ITEM: NUMBER OF ENTRIES
25
ITEM: BOX BOUNDS pp pp pp
-1.0000000000000000e+01 1.0000000000000000e+01
-1.0000000000000000e+01 1.0000000000000000e+01
-1.0000000000000000e+01 1.0000000000000000e+01
ITEM: ENTRIES index c_bondedatomid1 c_bondedatomid2 c_btype
1 1 2 1 
2 2 3 1 
3 28 29 1 
4 17 18 1 
5 21 29 2 
6 16 17 1 
7 16 29 2 
8 16 19 2 
9 18 28 2 
10 18 20 2 
11 20 21 1 
12 29 30 1 
13 19 20 1 
14 4 5 1 
15 5 6 1 
16 7 8 1 
17 8 9 1 
18 23 24 1 
19 22 23 1 
20 11 12 1 
21 10 11 1 
22 25 26 1 
23 26 27 1 
24 14 15 1 
25 13 14 1 
ITEM: TIMESTEP
34700
ITEM: NUMBER OF ENTRIES
25
ITEM: BOX BOUNDS pp pp pp
-1.0000000000000000e+01 1.0000000000000000e+01
-1.0000000000000000e+01 1.0000000000000000e+01
-1.0000000000000000e+01 1.0000000000000000e+01
ITEM: ENTRIES index c_bondedatomid1 c_bondedatomid2 c_btype
1 1 2 1 
2 2 3 1 
3 28 29 1 
4 17 18 1 
5 21 29 2 
6 16 17 1 
7 16 29 2 
8 16 19 2 
9 18 28 2 
10 18 20 2 
11 20 21 1 
12 29 30 1 
13 19 20 1 
14 4 5 1 
15 5 6 1 
16 7 8 1 
17 8 9 1 
18 23 24 1 
19 22 23 1 
20 11 12 1 
21 10 11 1 
22 25 26 1 
23 26 27 1 
24 14 15 1 
25 13 14 1 
ITEM: TIMESTEP
34800
ITEM: NUMBER OF ENTRIES
25
ITEM: BOX BOUNDS pp pp pp
-1.0000000000000000e+01 1.0000000000000000e+01
-1.0000000000000000e+01 1.0000000000000000e+01
-1.0000000000000000e+01 1.0000000000000000e+01
ITEM: ENTRIES index c_bondedatomid1 c_bondedatomid2 c_btype
1 1 2 1 
2 2 3 1 
3 28 29 1 
4 17 18 1 
5 21 29 2 
6 16 17 1 
7 16 29 2 
8 16 19 2 
9 18 28 2 
10 18 20 2 
11 20 21 1 
12 29 30 1 
13 19 20 1 
14 4 5 1 
15 5 6 1 
16 7 8 1 
17 8 9 1 
18 23 24 1 
19 22 23 1 
20 11 12 1 
21 10 11 1 
22 25 26 1 
23 26 27 1 
24 14 15 1 
25 13 14 1 
ITEM: TIMESTEP
34900
ITEM: NUMBER OF ENTRIES
25
ITEM: BOX BOUNDS pp pp pp
-1.0000000000000000e+01 1.0000000000000000e+01
-1.0000000000000000e+01 1.0000000000000000e+01
-1.0000000000000000e+01 1.0000000000000000e+01
ITEM: ENTRIES index c_bondedatomid1 c_bondedatomid2 c_btype
1 1 2 1 
2 2 3 1 
3 28 29 1 
4 17 18 1 
5 21 29 2 
6 16 17 1 
7 16 29 2 
8 16 19 2 
9 18 28 2 
10 18 20 2 
11 20 21 1 
12 29 30 1 
13 19 20 1 
14 4 5 1 
15 5 6 1 
16 7 8 1 
17 8 9 1 
18 23 24 1 
19 22 23 1 
20 11 12 1 
21 10 11 1 
22 25 26 1 
23 26 27 1 
24 14 15 1 
25 13 14 1 
ITEM: TIMESTEP
35000
ITEM: NUMBER OF ENTRIES
25
ITEM: BOX BOUNDS pp pp pp
-1.0000000000000000e+01 1.0000000000000000e+01
-1.0000000000000000e+01 1.0000000000000000e+01
-1.0000000000000000e+01 1.0000000000000000e+01
ITEM: ENTRIES index c_bondedatomid1 c_bondedatomid2 c_btype
1 1 2 1 
2 2 3 1 
3 28 29 1 
4 17 18 1 
5 21 29 2 
6 16 17 1 
7 16 29 2 
8 16 19 2 
9 18 28 2 
10 18 20 2 
11 20 21 1 
12 29 30 1 
13 19 20 1 
14 4 5 1 
15 5 6 1 
16 7 8 1 
17 8 9 1 
18 23 24 1 
19 22 23 1 
20 11 12 1 
21 10 11 1 
22 25 26 1 
23 26 27 1 
24 14 15 1 
25 13 14 1 
ITEM: TIMESTEP
35100
ITEM: NUMBER OF ENTRIES
25
ITEM: BOX BOUNDS pp pp pp
-1.0000000000000000e+01 1.0000000000000000e+01
-1.0000000000000000e+01 1.0000000000000000e+01
-1.0000000000000000e+01 1.0000000000000000e+01
ITEM: ENTRIES index c_bondedatomid1 c_bondedatomid2 c_btype
1 1 2 1 
2 2 3 1 
3 28 29 1 
4 17 18 1 
5 21 29 2 
6 16 17 1 
7 16 29 2 
8 16 19 2 
9 18 28 2 
10 18 20 2 
11 20 21 1 
12 29 30 1 
13 19 20 1 
14 4 5 1 
15 5 6 1 
16 7 8 1 
17 8 9 1 
18 23 24 1 
19 22 23 1 
20 11 12 1 
21 10 11 1 
22 25 26 1 
23 26 27 1 
24 14 15 1 
25 13 14 1 
ITEM: TIMESTEP
35200
ITEM: NUMBER OF ENTRIES
25
ITEM: BOX BOUNDS pp pp pp
-1.0000000000000000e+01 1.0000000000000000e+01
-1.0000000000000000e+01 1.0000000000000000e+01
-1.0000000000000000e+01 1.0000000000000000e+01
ITEM: ENTRIES index c_bondedatomid1 c_bondedatomid2 c_btype
1 1 2 1 
2 2 3 1 
3 21 29 2 
4 20 21 1 
5 28 29 1 
6 18 28 2 
7 18 20 2 
8 29 30 1 
9 17 18 1 
10 19 20 1 
11 16 17 1 
12 16 29 2 
13 16 19 2 
14 4 5 1 
15 5 6 1 
16 7 8 1 
17 8 9 1 
18 23 24 1 
19 22 23 1 
20 11 12 1 
21 10 11 1 
22 25 26 1 
23 26 27 1 
24 13 14 1 
25 14 15 1 
ITEM: TIMESTEP
35300
ITEM: NUMBER OF ENTRIES
25
ITEM: BOX BOUNDS pp pp pp
-1.0000000000000000e+01 1.0000000000000000e+01
-1.0000000000000000e+01 1.0000000000000000e+01
-1.0000000000000000e+01 1.0000000000000000e+01
ITEM: ENTRIES index c_bondedatomid1 c_bondedatomid2 c_btype
1 1 2 1 
2 2 3 1 
3 21 29 2 
4 20 21 1 
5 28 29 1 
6 18 28 2 
7 18 20 2 
8 29 30 1 
9 17 18 1 
10 19 20 1 
11 16 17 1 
12 16 29 2 
13 16 19 2 
14 4 5 1 
15 5 6 1 
16 7 8 1 
17 8 9 1 
18 23 24 1 
19 22 23 1 
20 11 12 1 
21 10 11 1 
22 25 26 1 
23 26 27 1 
24 13 14 1 
25 14 15 1 
ITEM: TIMESTEP
35400
ITEM: NUMBER OF ENTRIES
25
ITEM: BOX BOUNDS pp pp pp
-1.0000000000000000e+01 1.0000000000000000e+01
-1.0000000000000000e+01 1.0000000000000000e+01
-1.0000000000000000e+01 1.0000000000000000e+01
ITEM: ENTRIES index c_bondedatomid1 c_bondedatomid2 c_btype
1 1 2 1 
2 2 3 1 
3 21 29 2 
4 20 21 1 
5 28 29 1 
6 18 28 2 
7 18 20 2 
8 29 30 1 
9 17 18 1 
10 19 20 1 
11 16 17 1 
12 16 29 2 
13 16 19 2 
14 4 5 1 
15 5 6 1 
16 7 8 1 
17 8 9 1 
18 23 24 1 
19 22 23 1 
20 11 12 1 
21 10 11 1 
22 25 26 1 
23 26 27 1 
24 13 14 1 
25 14 15 1 
ITEM: TIMESTEP
35500
ITEM: NUMBER OF ENTRIES
25
ITEM: BOX BOUNDS pp pp pp
-1.0000000000000000e+01 1.0000000000000000e+01
-1.0000000000000000e+01 1.0000000000000000e+01
-1.0000000000000000e+01 1.0000000000000000e+01
ITEM: ENTRIES index c_bondedatomid1 c_bondedatomid2 c_btype
1 1 2 1 
2 2 3 1 
3 21 29 2 
4 20 21 1 
5 28 29 1 
6 18 28 2 
7 18 20 2 
8 29 30 1 
9 17 18 1 
10 19 20 1 
11 16 17 1 
12 16 29 2 
13 16 19 2 
14 4 5 1 
15 5 6 1 
16 7 8 1 
17 8 9 1 
18 23 24 1 
19 22 23 1 
20 11 12 1 
21 10 11 1 
22 25 26 1 
23 26 27 1 
24 13 14 1 
25 14 15 1 
ITEM: TIMESTEP
35600
ITEM: NUMBER OF ENTRIES
25
ITEM: BOX BOUNDS pp pp pp
-1.0000000000000000e+01 1.0000000000000000e+01
-1.0000000000000000e+01 1.0000000000000000e+01
-1.0000000000000000e+01 1.0000000000000000e+01
ITEM: ENTRIES index c_bondedatomid1 c_bondedatomid2 c_btype
1 1 2 1 
2 2 3 1 
3 21 29 2 
4 20 21 1 
5 28 29 1 
6 18 28 2 
7 18 20 2 
8 29 30 1 
9 17 18 1 
10 19 20 1 
11 16 17 1 
12 16 29 2 
13 16 19 2 
14 4 5 1 
15 5 6 1 
16 7 8 1 
17 8 9 1 
18 23 24 1 
19 22 23 1 
20 11 12 1 
21 10 11 1 
22 25 26 1 
23 26 27 1 
24 13 14 1 
25 14 15 1 
ITEM: TIMESTEP
35700
ITEM: NUMBER OF ENTRIES
25
ITEM: BOX BOUNDS pp pp pp
-1.0000000000000000e+01 1.0000000000000000e+01
-1.0000000000000000e+01 1.0000000000000000e+01
-1.0000000000000000e+01 1.0000000000000000e+01
ITEM: ENTRIES index c_bondedatomid1 c_bondedatomid2 c_btype
1 1 2 1 
2 2 3 1 
3 21 29 2 
4 20 21 1 
5 28 29 1 
6 18 28 2 
7 18 20 2 
8 29 30 1 
9 17 18 1 
10 19 20 1 
11 16 17 1 
12 16 29 2 
13 16 19 2 
14 4 5 1 
15 5 6 1 
16 7 8 1 
17 8 9 1 
18 23 24 1 
19 22 23 1 
20 11 12 1 
21 10 11 1 
22 25 26 1 
23 26 27 1 
24 13 14 1 
25 14 15 1 
ITEM: TIMESTEP
35800
ITEM: NUMBER OF ENTRIES
25
ITEM: BOX BOUNDS pp pp pp
-1.0000000000000000e+01 1.0000000000000000e+01
-1.0000000000000000e+01 1.0000000000000000e+01
-1.0000000000000000e+01 1.0000000000000000e+01
ITEM: ENTRIES index c_bondedatomid1 c_bondedatomid2 c_btype
1 1 2 1 
2 2 3 1 
3 21 29 2 
4 20 21 1 
5 28 29 1 
6 18 28 2 
7 18 20 2 
8 29 30 1 
9 17 18 1 
10 19 20 1 
11 16 17 1 
12 16 29 2 
13 16 19 2 
14 4 5 1 
15 5 6 1 
16 7 8 1 
17 8 9 1 
18 23 24 1 
19 22 23 1 
20 11 12 1 
21 10 11 1 
22 25 26 1 
23 26 27 1 
24 13 14 1 
25 14 15 1 
ITEM: TIMESTEP
35900
ITEM: NUMBER OF ENTRIES
25
ITEM: BOX BOUNDS pp pp pp
-1.0000000000000000e+01 1.0000000000000000e+01
-1.0000000000000000e+01 1.0000000000000000e+01
-1.0000000000000000e+01 1.0000000000000000e+01
ITEM: ENTRIES index c_bondedatomid1 c_bondedatomid2 c_btype
1 1 2 1 
2 2 3 1 
3 21 29 2 
4 20 21 1 
5 28 29 1 
6 18 28 2 
7 18 20 2 
8 29 30 1 
9 17 18 1 
10 19 20 1 
11 16 17 1 
12 16 29 2 
13 16 19 2 
14 4 5 1 
15 5 6 1 
16 7 8 1 
17 8 9 1 
18 23 24 1 
19 22 23 1 
20 11 12 1 
21 10 11 1 
22 25 26 1 
23 26 27 1 
24 13 14 1 
25 14 15 1 
ITEM: TIMESTEP
36000
ITEM: NUMBER OF ENTRIES
25
ITEM: BOX BOUNDS pp pp pp
-1.0000000000000000e+01 1.0000000000000000e+01
-1.0000000000000000e+01 1.0000000000000000e+01
-1.0000000000000000e+01 1.0000000000000000e+01
ITEM: ENTRIES index c_bondedatomid1 c_bondedatomid2 c_btype
1 1 2 1 
2 2 3 1 
3 21 29 2 
4 20 21 1 
5 28 29 1 
6 18 28 2 
7 18 20 2 
8 29 30 1 
9 17 18 1 
10 19 20 1 
11 16 17 1 
12 16 29 2 
13 16 19 2 
14 4 5 1 
15 5 6 1 
16 7 8 1 
17 8 9 1 
18 23 24 1 
19 22 23 1 
20 11 12 1 
21 10 11 1 
22 25 26 1 
23 26 27 1 
24 13 14 1 
25 14 15 1 
ITEM: TIMESTEP
36100
ITEM: NUMBER OF ENTRIES
25
ITEM: BOX BOUNDS pp pp pp
-1.0000000000000000e+01 1.0000000000000000e+01
-1.0000000000000000e+01 1.0000000000000000e+01
-1.0000000000000000e+01 1.0000000000000000e+01
ITEM: ENTRIES index c_bondedatomid1 c_bondedatomid2 c_btype
1 1 2 1 
2 2 3 1 
3 18 28 2 
4 18 20 2 
5 29 30 1 
6 19 20 1 
7 21 29 2 
8 17 18 1 
9 5 6 1 
10 8 9 1 
11 20 21 1 
12 28 29 1 
13 16 17 1 
14 16 29 2 
15 16 19 2 
16 4 5 1 
17 7 8 1 
18 23 24 1 
19 22 23 1 
20 11 12 1 
21 10 11 1 
22 25 26 1 
23 26 27 1 
24 13 14 1 
25 14 15 1 
ITEM: TIMESTEP
36200
ITEM: NUMBER OF ENTRIES
25
ITEM: BOX BOUNDS pp pp pp
-1.0000000000000000e+01 1.0000000000000000e+01
-1.0000000000000000e+01 1.0000000000000000e+01
-1.0000000000000000e+01 1.0000000000000000e+01
ITEM: ENTRIES index c_bondedatomid1 c_bondedatomid2 c_btype
1 1 2 1 
2 2 3 1 
3 18 28 2 
4 18 20 2 
5 29 30 1 
6 19 20 1 
7 21 29 2 
8 17 18 1 
9 5 6 1 
10 8 9 1 
11 20 21 1 
12 28 29 1 
13 16 17 1 
14 16 29 2 
15 16 19 2 
16 4 5 1 
17 7 8 1 
18 23 24 1 
19 22 23 1 
20 11 12 1 
21 10 11 1 
22 25 26 1 
23 26 27 1 
24 13 14 1 
25 14 15 1 
ITEM: TIMESTEP
36300
ITEM: NUMBER OF ENTRIES
25
ITEM: BOX BOUNDS pp pp pp
-1.0000000000000000e+01 1.0000000000000000e+01
-1.0000000000000000e+01 1.0000000000000000e+01
-1.0000000000000000e+01 1.0000000000000000e+01
ITEM: ENTRIES index c_bondedatomid1 c_bondedatomid2 c_btype
1 1 2 1 
2 2 3 1 
3 18 28 2 
4 18 20 2 
5 29 30 1 
6 19 20 1 
7 21 29 2 
8 17 18 1 
9 5 6 1 
10 8 9 1 
11 20 21 1 
12 28 29 1 
13 16 17 1 
14 16 29 2 
15 16 19 2 
16 4 5 1 
17 7 8 1 
18 23 24 1 
19 22 23 1 
20 11 12 1 
21 10 11 1 
22 25 26 1 
23 26 27 1 
24 13 14 1 
25 14 15 1 
ITEM: TIMESTEP
36400
ITEM: NUMBER OF ENTRIES
25
ITEM: BOX BOUNDS pp pp pp
-1.0000000000000000e+01 1.0000000000000000e+01
-1.0000000000000000e+01 1.0000000000000000e+01
-1.0000000000000000e+01 1.0000000000000000e+01
ITEM: ENTRIES index c_bondedatomid1 c_bondedatomid2 c_btype
1 1 2 1 
2 2 3 1 
3 18 28 2 
4 18 20 2 
5 29 30 1 
6 19 20 1 
7 21 29 2 
8 17 18 1 
9 5 6 1 
10 8 9 1 
11 20 21 1 
12 28 29 1 
13 16 17 1 
14 16 29 2 
15 16 19 2 
16 4 5 1 
17 7 8 1 
18 23 24 1 
19 22 23 1 
20 11 12 1 
21 10 11 1 
22 25 26 1 
23 26 27 1 
24 13 14 1 
25 14 15 1 
ITEM: TIMESTEP
36500
ITEM: NUMBER OF ENTRIES
25
ITEM: BOX BOUNDS pp pp pp
-1.0000000000000000e+01 1.0000000000000000e+01
-1.0000000000000000e+01 1.0000000000000000e+01
-1.0000000000000000e+01 1.0000000000000000e+01
ITEM: ENTRIES index c_bondedatomid1 c_bondedatomid2 c_btype
1 1 2 1 
2 2 3 1 
3 18 28 2 
4 18 20 2 
5 29 30 1 
6 19 20 1 
7 21 29 2 
8 17 18 1 
9 5 6 1 
10 8 9 1 
11 20 21 1 
12 28 29 1 
13 16 17 1 
14 16 29 2 
15 16 19 2 
16 4 5 1 
17 7 8 1 
18 23 24 1 
19 22 23 1 
20 11 12 1 
21 10 11 1 
22 25 26 1 
23 26 27 1 
24 13 14 1 
25 14 15 1 
ITEM: TIMESTEP
36600
ITEM: NUMBER OF ENTRIES
25
ITEM: BOX BOUNDS pp pp pp
-1.0000000000000000e+01 1.0000000000000000e+01
-1.0000000000000000e+01 1.0000000000000000e+01
-1.0000000000000000e+01 1.0000000000000000e+01
ITEM: ENTRIES index c_bondedatomid1 c_bondedatomid2 c_btype
1 1 2 1 
2 2 3 1 
3 18 28 2 
4 18 20 2 
5 29 30 1 
6 19 20 1 
7 21 29 2 
8 17 18 1 
9 5 6 1 
10 8 9 1 
11 20 21 1 
12 28 29 1 
13 16 17 1 
14 16 29 2 
15 16 19 2 
16 4 5 1 
17 7 8 1 
18 23 24 1 
19 22 23 1 
20 11 12 1 
21 10 11 1 
22 25 26 1 
23 26 27 1 
24 13 14 1 
25 14 15 1 
ITEM: TIMESTEP
36700
ITEM: NUMBER OF ENTRIES
25
ITEM: BOX BOUNDS pp pp pp
-1.0000000000000000e+01 1.0000000000000000e+01
-1.0000000000000000e+01 1.0000000000000000e+01
-1.0000000000000000e+01 1.0000000000000000e+01
ITEM: ENTRIES index c_bondedatomid1 c_bondedatomid2 c_btype
1 1 2 1 
2 2 3 1 
3 18 28 2 
4 18 20 2 
5 29 30 1 
6 19 20 1 
7 21 29 2 
8 17 18 1 
9 5 6 1 
10 8 9 1 
11 20 21 1 
12 28 29 1 
13 16 17 1 
14 16 29 2 
15 16 19 2 
16 4 5 1 
17 7 8 1 
18 23 24 1 
19 22 23 1 
20 11 12 1 
21 10 11 1 
22 25 26 1 
23 26 27 1 
24 13 14 1 
25 14 15 1 
ITEM: TIMESTEP
36800
ITEM: NUMBER OF ENTRIES
25
ITEM: BOX BOUNDS pp pp pp
-1.0000000000000000e+01 1.0000000000000000e+01
-1.0000000000000000e+01 1.0000000000000000e+01
-1.0000000000000000e+01 1.0000000000000000e+01
ITEM: ENTRIES index c_bondedatomid1 c_bondedatomid2 c_btype
1 1 2 1 
2 2 3 1 
3 18 28 2 
4 18 20 2 
5 29 30 1 
6 19 20 1 
7 21 29 2 
8 17 18 1 
9 5 6 1 
10 8 9 1 
11 20 21 1 
12 28 29 1 
13 16 17 1 
14 16 29 2 
15 16 19 2 
16 4 5 1 
17 7 8 1 
18 23 24 1 
19 22 23 1 
20 11 12 1 
21 10 11 1 
22 25 26 1 
23 26 27 1 
24 13 14 1 
25 14 15 1 
ITEM: TIMESTEP
36900
ITEM: NUMBER OF ENTRIES
25
ITEM: BOX BOUNDS pp pp pp
-1.0000000000000000e+01 1.0000000000000000e+01
-1.0000000000000000e+01 1.0000000000000000e+01
-1.0000000000000000e+01 1.0000000000000000e+01
ITEM: ENTRIES index c_bondedatomid1 c_bondedatomid2 c_btype
1 1 2 1 
2 2 3 1 
3 18 28 2 
4 18 20 2 
5 29 30 1 
6 19 20 1 
7 21 29 2 
8 17 18 1 
9 5 6 1 
10 8 9 1 
11 20 21 1 
12 28 29 1 
13 16 17 1 
14 16 29 2 
15 16 19 2 
16 4 5 1 
17 7 8 1 
18 23 24 1 
19 22 23 1 
20 11 12 1 
21 10 11 1 
22 25 26 1 
23 26 27 1 
24 13 14 1 
25 14 15 1 
ITEM: TIMESTEP
37000
ITEM: NUMBER OF ENTRIES
25
ITEM: BOX BOUNDS pp pp pp
-1.0000000000000000e+01 1.0000000000000000e+01
-1.0000000000000000e+01 1.0000000000000000e+01
-1.0000000000000000e+01 1.0000000000000000e+01
ITEM: ENTRIES index c_bondedatomid1 c_bondedatomid2 c_btype
1 1 2 1 
2 2 3 1 
3 18 28 2 
4 18 20 2 
5 29 30 1 
6 19 20 1 
7 21 29 2 
8 17 18 1 
9 5 6 1 
10 8 9 1 
11 20 21 1 
12 28 29 1 
13 16 17 1 
14 16 29 2 
15 16 19 2 
16 4 5 1 
17 7 8 1 
18 23 24 1 
19 22 23 1 
20 11 12 1 
21 10 11 1 
22 25 26 1 
23 26 27 1 
24 13 14 1 
25 14 15 1 
ITEM: TIMESTEP
37100
ITEM: NUMBER OF ENTRIES
25
ITEM: BOX BOUNDS pp pp pp
-1.0000000000000000e+01 1.0000000000000000e+01
-1.0000000000000000e+01 1.0000000000000000e+01
-1.0000000000000000e+01 1.0000000000000000e+01
ITEM: ENTRIES index c_bondedatomid1 c_bondedatomid2 c_btype
1 1 2 1 
2 29 30 1 
3 16 17 1 
4 16 29 2 
5 16 19 2 
6 18 28 2 
7 18 20 2 
8 17 18 1 
9 19 20 1 
10 20 21 1 
11 4 5 1 
12 8 9 1 
13 7 8 1 
14 21 29 2 
15 28 29 1 
16 5 6 1 
17 23 24 1 
18 22 23 1 
19 11 12 1 
20 10 11 1 
21 25 26 1 
22 26 27 1 
23 2 3 1 
24 13 14 1 
25 14 15 1 
ITEM: TIMESTEP
37200
ITEM: NUMBER OF ENTRIES
25
ITEM: BOX BOUNDS pp pp pp
-1.0000000000000000e+01 1.0000000000000000e+01
-1.0000000000000000e+01 1.0000000000000000e+01
-1.0000000000000000e+01 1.0000000000000000e+01
ITEM: ENTRIES index c_bondedatomid1 c_bondedatomid2 c_btype
1 1 2 1 
2 29 30 1 
3 16 17 1 
4 16 29 2 
5 16 19 2 
6 18 28 2 
7 18 20 2 
8 17 18 1 
9 19 20 1 
10 20 21 1 
11 4 5 1 
12 8 9 1 
13 7 8 1 
14 21 29 2 
15 28 29 1 
16 5 6 1 
17 23 24 1 
18 22 23 1 
19 11 12 1 
20 10 11 1 
21 25 26 1 
22 26 27 1 
23 2 3 1 
24 13 14 1 
25 14 15 1 
ITEM: TIMESTEP
37300
ITEM: NUMBER OF ENTRIES
25
ITEM: BOX BOUNDS pp pp pp
-1.0000000000000000e+01 1.0000000000000000e+01
-1.0000000000000000e+01 1.0000000000000000e+01
-1.0000000000000000e+01 1.0000000000000000e+01
ITEM: ENTRIES index c_bondedatomid1 c_bondedatomid2 c_btype
1 1 2 1 
2 29 30 1 
3 16 17 1 
4 16 29 2 
5 16 19 2 
6 18 28 2 
7 18 20 2 
8 17 18 1 
9 19 20 1 
10 20 21 1 
11 4 5 1 
12 8 9 1 
13 7 8 1 
14 21 29 2 
15 28 29 1 
16 5 6 1 
17 23 24 1 
18 22 23 1 
19 11 12 1 
20 10 11 1 
21 25 26 1 
22 26 27 1 
23 2 3 1 
24 13 14 1 
25 14 15 1 
ITEM: TIMESTEP
37400
ITEM: NUMBER OF ENTRIES
25
ITEM: BOX BOUNDS pp pp pp
-1.0000000000000000e+01 1.0000000000000000e+01
-1.0000000000000000e+01 1.0000000000000000e+01
-1.0000000000000000e+01 1.0000000000000000e+01
ITEM: ENTRIES index c_bondedatomid1 c_bondedatomid2 c_btype
1 1 2 1 
2 29 30 1 
3 16 17 1 
4 16 29 2 
5 16 19 2 
6 18 28 2 
7 18 20 2 
8 17 18 1 
9 19 20 1 
10 20 21 1 
11 4 5 1 
12 8 9 1 
13 7 8 1 
14 21 29 2 
15 28 29 1 
16 5 6 1 
17 23 24 1 
18 22 23 1 
19 11 12 1 
20 10 11 1 
21 25 26 1 
22 26 27 1 
23 2 3 1 
24 13 14 1 
25 14 15 1 
ITEM: TIMESTEP
37500
ITEM: NUMBER OF ENTRIES
25
ITEM: BOX BOUNDS pp pp pp
-1.0000000000000000e+01 1.0000000000000000e+01
-1.0000000000000000e+01 1.0000000000000000e+01
-1.0000000000000000e+01 1.0000000000000000e+01
ITEM: ENTRIES index c_bondedatomid1 c_bondedatomid2 c_btype
1 1 2 1 
2 29 30 1 
3 16 17 1 
4 16 29 2 
5 16 19 2 
6 18 28 2 
7 18 20 2 
8 17 18 1 
9 19 20 1 
10 20 21 1 
11 4 5 1 
12 8 9 1 
13 7 8 1 
14 21 29 2 
15 28 29 1 
16 5 6 1 
17 23 24 1 
18 22 23 1 
19 11 12 1 
20 10 11 1 
21 25 26 1 
22 26 27 1 
23 2 3 1 
24 13 14 1 
25 14 15 1 
ITEM: TIMESTEP
37600
ITEM: NUMBER OF ENTRIES
25
ITEM: BOX BOUNDS pp pp pp
-1.0000000000000000e+01 1.0000000000000000e+01
-1.0000000000000000e+01 1.0000000000000000e+01
-1.0000000000000000e+01 1.0000000000000000e+01
ITEM: ENTRIES index c_bondedatomid1 c_bondedatomid2 c_btype
1 1 2 1 
2 29 30 1 
3 16 17 1 
4 16 29 2 
5 16 19 2 
6 18 28 2 
7 18 20 2 
8 17 18 1 
9 19 20 1 
10 20 21 1 
11 4 5 1 
12 8 9 1 
13 7 8 1 
14 21 29 2 
15 28 29 1 
16 5 6 1 
17 23 24 1 
18 22 23 1 
19 11 12 1 
20 10 11 1 
21 25 26 1 
22 26 27 1 
23 2 3 1 
24 13 14 1 
25 14 15 1 
ITEM: TIMESTEP
37700
ITEM: NUMBER OF ENTRIES
25
ITEM: BOX BOUNDS pp pp pp
-1.0000000000000000e+01 1.0000000000000000e+01
-1.0000000000000000e+01 1.0000000000000000e+01
-1.0000000000000000e+01 1.0000000000000000e+01
ITEM: ENTRIES index c_bondedatomid1 c_bondedatomid2 c_btype
1 1 2 1 
2 29 30 1 
3 16 17 1 
4 16 29 2 
5 16 19 2 
6 18 28 2 
7 18 20 2 
8 17 18 1 
9 19 20 1 
10 20 21 1 
11 4 5 1 
12 8 9 1 
13 7 8 1 
14 21 29 2 
15 28 29 1 
16 5 6 1 
17 23 24 1 
18 22 23 1 
19 11 12 1 
20 10 11 1 
21 25 26 1 
22 26 27 1 
23 2 3 1 
24 13 14 1 
25 14 15 1 
ITEM: TIMESTEP
37800
ITEM: NUMBER OF ENTRIES
25
ITEM: BOX BOUNDS pp pp pp
-1.0000000000000000e+01 1.0000000000000000e+01
-1.0000000000000000e+01 1.0000000000000000e+01
-1.0000000000000000e+01 1.0000000000000000e+01
ITEM: ENTRIES index c_bondedatomid1 c_bondedatomid2 c_btype
1 1 2 1 
2 29 30 1 
3 16 17 1 
4 16 29 2 
5 16 19 2 
6 18 28 2 
7 18 20 2 
8 17 18 1 
9 19 20 1 
10 20 21 1 
11 4 5 1 
12 8 9 1 
13 7 8 1 
14 21 29 2 
15 28 29 1 
16 5 6 1 
17 23 24 1 
18 22 23 1 
19 11 12 1 
20 10 11 1 
21 25 26 1 
22 26 27 1 
23 2 3 1 
24 13 14 1 
25 14 15 1 
ITEM: TIMESTEP
37900
ITEM: NUMBER OF ENTRIES
25
ITEM: BOX BOUNDS pp pp pp
-1.0000000000000000e+01 1.0000000000000000e+01
-1.0000000000000000e+01 1.0000000000000000e+01
-1.0000000000000000e+01 1.0000000000000000e+01
ITEM: ENTRIES index c_bondedatomid1 c_bondedatomid2 c_btype
1 1 2 1 
2 29 30 1 
3 16 17 1 
4 16 29 2 
5 16 19 2 
6 18 28 2 
7 18 20 2 
8 17 18 1 
9 19 20 1 
10 20 21 1 
11 4 5 1 
12 8 9 1 
13 7 8 1 
14 21 29 2 
15 28 29 1 
16 5 6 1 
17 23 24 1 
18 22 23 1 
19 11 12 1 
20 10 11 1 
21 25 26 1 
22 26 27 1 
23 2 3 1 
24 13 14 1 
25 14 15 1 
ITEM: TIMESTEP
38000
ITEM: NUMBER OF ENTRIES
25
ITEM: BOX BOUNDS pp pp pp
-1.0000000000000000e+01 1.0000000000000000e+01
-1.0000000000000000e+01 1.0000000000000000e+01
-1.0000000000000000e+01 1.0000000000000000e+01
ITEM: ENTRIES index c_bondedatomid1 c_bondedatomid2 c_btype
1 1 2 1 
2 29 30 1 
3 16 17 1 
4 16 29 2 
5 16 19 2 
6 18 28 2 
7 18 20 2 
8 17 18 1 
9 19 20 1 
10 20 21 1 
11 4 5 1 
12 8 9 1 
13 7 8 1 
14 21 29 2 
15 28 29 1 
16 5 6 1 
17 23 24 1 
18 22 23 1 
19 11 12 1 
20 10 11 1 
21 25 26 1 
22 26 27 1 
23 2 3 1 
24 13 14 1 
25 14 15 1 
ITEM: TIMESTEP
38100
ITEM: NUMBER OF ENTRIES
25
ITEM: BOX BOUNDS pp pp pp
-1.0000000000000000e+01 1.0000000000000000e+01
-1.0000000000000000e+01 1.0000000000000000e+01
-1.0000000000000000e+01 1.0000000000000000e+01
ITEM: ENTRIES index c_bondedatomid1 c_bondedatomid2 c_btype
1 29 30 1 
2 16 17 1 
3 16 29 2 
4 16 19 2 
5 20 21 1 
6 28 29 1 
7 19 20 1 
8 21 29 2 
9 7 8 1 
10 18 28 2 
11 18 20 2 
12 17 18 1 
13 5 6 1 
14 4 5 1 
15 8 9 1 
16 22 23 1 
17 11 12 1 
18 23 24 1 
19 10 11 1 
20 25 26 1 
21 26 27 1 
22 1 2 1 
23 2 3 1 
24 13 14 1 
25 14 15 1 
ITEM: TIMESTEP
38200
ITEM: NUMBER OF ENTRIES
25
ITEM: BOX BOUNDS pp pp pp
-1.0000000000000000e+01 1.0000000000000000e+01
-1.0000000000000000e+01 1.0000000000000000e+01
-1.0000000000000000e+01 1.0000000000000000e+01
ITEM: ENTRIES index c_bondedatomid1 c_bondedatomid2 c_btype
1 29 30 1 
2 16 17 1 
3 16 29 2 
4 16 19 2 
5 20 21 1 
6 28 29 1 
7 19 20 1 
8 21 29 2 
9 7 8 1 
10 18 28 2 
11 18 20 2 
12 17 18 1 
13 5 6 1 
14 4 5 1 
15 8 9 1 
16 22 23 1 
17 11 12 1 
18 23 24 1 
19 10 11 1 
20 25 26 1 
21 26 27 1 
22 1 2 1 
23 2 3 1 
24 13 14 1 
25 14 15 1 
ITEM: TIMESTEP
38300
ITEM: NUMBER OF ENTRIES
25
ITEM: BOX BOUNDS pp pp pp
-1.0000000000000000e+01 1.0000000000000000e+01
-1.0000000000000000e+01 1.0000000000000000e+01
-1.0000000000000000e+01 1.0000000000000000e+01
ITEM: ENTRIES index c_bondedatomid1 c_bondedatomid2 c_btype
1 29 30 1 
2 16 17 1 
3 16 29 2 
4 16 19 2 
5 20 21 1 
6 28 29 1 
7 19 20 1 
8 21 29 2 
9 7 8 1 
10 18 28 2 
11 18 20 2 
12 17 18 1 
13 5 6 1 
14 4 5 1 
15 8 9 1 
16 22 23 1 
17 11 12 1 
18 23 24 1 
19 10 11 1 
20 25 26 1 
21 26 27 1 
22 1 2 1 
23 2 3 1 
24 13 14 1 
25 14 15 1 
ITEM: TIMESTEP
38400
ITEM: NUMBER OF ENTRIES
25
ITEM: BOX BOUNDS pp pp pp
-1.0000000000000000e+01 1.0000000000000000e+01
-1.0000000000000000e+01 1.0000000000000000e+01
-1.0000000000000000e+01 1.0000000000000000e+01
ITEM: ENTRIES index c_bondedatomid1 c_bondedatomid2 c_btype
1 29 30 1 
2 16 17 1 
3 16 29 2 
4 16 19 2 
5 20 21 1 
6 28 29 1 
7 19 20 1 
8 21 29 2 
9 7 8 1 
10 18 28 2 
11 18 20 2 
12 17 18 1 
13 5 6 1 
14 4 5 1 
15 8 9 1 
16 22 23 1 
17 11 12 1 
18 23 24 1 
19 10 11 1 
20 25 26 1 
21 26 27 1 
22 1 2 1 
23 2 3 1 
24 13 14 1 
25 14 15 1 
ITEM: TIMESTEP
38500
ITEM: NUMBER OF ENTRIES
25
ITEM: BOX BOUNDS pp pp pp
-1.0000000000000000e+01 1.0000000000000000e+01
-1.0000000000000000e+01 1.0000000000000000e+01
-1.0000000000000000e+01 1.0000000000000000e+01
ITEM: ENTRIES index c_bondedatomid1 c_bondedatomid2 c_btype
1 29 30 1 
2 16 17 1 
3 16 29 2 
4 16 19 2 
5 20 21 1 
6 28 29 1 
7 19 20 1 
8 21 29 2 
9 7 8 1 
10 18 28 2 
11 18 20 2 
12 17 18 1 
13 5 6 1 
14 4 5 1 
15 8 9 1 
16 22 23 1 
17 11 12 1 
18 23 24 1 
19 10 11 1 
20 25 26 1 
21 26 27 1 
22 1 2 1 
23 2 3 1 
24 13 14 1 
25 14 15 1 
ITEM: TIMESTEP
38600
ITEM: NUMBER OF ENTRIES
25
ITEM: BOX BOUNDS pp pp pp
-1.0000000000000000e+01 1.0000000000000000e+01
-1.0000000000000000e+01 1.0000000000000000e+01
-1.0000000000000000e+01 1.0000000000000000e+01
ITEM: ENTRIES index c_bondedatomid1 c_bondedatomid2 c_btype
1 29 30 1 
2 16 17 1 
3 16 29 2 
4 16 19 2 
5 20 21 1 
6 28 29 1 
7 19 20 1 
8 21 29 2 
9 7 8 1 
10 18 28 2 
11 18 20 2 
12 17 18 1 
13 5 6 1 
14 4 5 1 
15 8 9 1 
16 22 23 1 
17 11 12 1 
18 23 24 1 
19 10 11 1 
20 25 26 1 
21 26 27 1 
22 1 2 1 
23 2 3 1 
24 13 14 1 
25 14 15 1 
ITEM: TIMESTEP
38700
ITEM: NUMBER OF ENTRIES
25
ITEM: BOX BOUNDS pp pp pp
-1.0000000000000000e+01 1.0000000000000000e+01
-1.0000000000000000e+01 1.0000000000000000e+01
-1.0000000000000000e+01 1.0000000000000000e+01
ITEM: ENTRIES index c_bondedatomid1 c_bondedatomid2 c_btype
1 29 30 1 
2 16 17 1 
3 16 29 2 
4 16 19 2 
5 20 21 1 
6 28 29 1 
7 19 20 1 
8 21 29 2 
9 7 8 1 
10 18 28 2 
11 18 20 2 
12 17 18 1 
13 5 6 1 
14 4 5 1 
15 8 9 1 
16 22 23 1 
17 11 12 1 
18 23 24 1 
19 10 11 1 
20 25 26 1 
21 26 27 1 
22 1 2 1 
23 2 3 1 
24 13 14 1 
25 14 15 1 
ITEM: TIMESTEP
38800
ITEM: NUMBER OF ENTRIES
25
ITEM: BOX BOUNDS pp pp pp
-1.0000000000000000e+01 1.0000000000000000e+01
-1.0000000000000000e+01 1.0000000000000000e+01
-1.0000000000000000e+01 1.0000000000000000e+01
ITEM: ENTRIES index c_bondedatomid1 c_bondedatomid2 c_btype
1 29 30 1 
2 16 17 1 
3 16 29 2 
4 16 19 2 
5 20 21 1 
6 28 29 1 
7 19 20 1 
8 21 29 2 
9 7 8 1 
10 18 28 2 
11 18 20 2 
12 17 18 1 
13 5 6 1 
14 4 5 1 
15 8 9 1 
16 22 23 1 
17 11 12 1 
18 23 24 1 
19 10 11 1 
20 25 26 1 
21 26 27 1 
22 1 2 1 
23 2 3 1 
24 13 14 1 
25 14 15 1 
ITEM: TIMESTEP
38900
ITEM: NUMBER OF ENTRIES
25
ITEM: BOX BOUNDS pp pp pp
-1.0000000000000000e+01 1.0000000000000000e+01
-1.0000000000000000e+01 1.0000000000000000e+01
-1.0000000000000000e+01 1.0000000000000000e+01
ITEM: ENTRIES index c_bondedatomid1 c_bondedatomid2 c_btype
1 29 30 1 
2 16 17 1 
3 16 29 2 
4 16 19 2 
5 20 21 1 
6 28 29 1 
7 19 20 1 
8 21 29 2 
9 7 8 1 
10 18 28 2 
11 18 20 2 
12 17 18 1 
13 5 6 1 
14 4 5 1 
15 8 9 1 
16 22 23 1 
17 11 12 1 
18 23 24 1 
19 10 11 1 
20 25 26 1 
21 26 27 1 
22 1 2 1 
23 2 3 1 
24 13 14 1 
25 14 15 1 
ITEM: TIMESTEP
39000
ITEM: NUMBER OF ENTRIES
25
ITEM: BOX BOUNDS pp pp pp
-1.0000000000000000e+01 1.0000000000000000e+01
-1.0000000000000000e+01 1.0000000000000000e+01
-1.0000000000000000e+01 1.0000000000000000e+01
ITEM: ENTRIES index c_bondedatomid1 c_bondedatomid2 c_btype
1 29 30 1 
2 16 17 1 
3 16 29 2 
4 16 19 2 
5 20 21 1 
6 28 29 1 
7 19 20 1 
8 21 29 2 
9 7 8 1 
10 18 28 2 
11 18 20 2 
12 17 18 1 
13 5 6 1 
14 4 5 1 
15 8 9 1 
16 22 23 1 
17 11 12 1 
18 23 24 1 
19 10 11 1 
20 25 26 1 
21 26 27 1 
22 1 2 1 
23 2 3 1 
24 13 14 1 
25 14 15 1 
ITEM: TIMESTEP
39100
ITEM: NUMBER OF ENTRIES
25
ITEM: BOX BOUNDS pp pp pp
-1.0000000000000000e+01 1.0000000000000000e+01
-1.0000000000000000e+01 1.0000000000000000e+01
-1.0000000000000000e+01 1.0000000000000000e+01
ITEM: ENTRIES index c_bondedatomid1 c_bondedatomid2 c_btype
1 29 30 1 
2 19 20 1 
3 28 29 1 
4 21 29 2 
5 7 8 1 
6 8 9 1 
7 20 21 1 
8 18 28 2 
9 18 20 2 
10 17 18 1 
11 22 23 1 
12 16 17 1 
13 16 29 2 
14 16 19 2 
15 23 24 1 
16 5 6 1 
17 4 5 1 
18 11 12 1 
19 10 11 1 
20 26 27 1 
21 25 26 1 
22 1 2 1 
23 2 3 1 
24 13 14 1 
25 14 15 1 
ITEM: TIMESTEP
39200
ITEM: NUMBER OF ENTRIES
25
ITEM: BOX BOUNDS pp pp pp
-1.0000000000000000e+01 1.0000000000000000e+01
-1.0000000000000000e+01 1.0000000000000000e+01
-1.0000000000000000e+01 1.0000000000000000e+01
ITEM: ENTRIES index c_bondedatomid1 c_bondedatomid2 c_btype
1 29 30 1 
2 19 20 1 
3 28 29 1 
4 21 29 2 
5 7 8 1 
6 8 9 1 
7 20 21 1 
8 18 28 2 
9 18 20 2 
10 17 18 1 
11 22 23 1 
12 16 17 1 
13 16 29 2 
14 16 19 2 
15 23 24 1 
16 5 6 1 
17 4 5 1 
18 11 12 1 
19 10 11 1 
20 26 27 1 
21 25 26 1 
22 1 2 1 
23 2 3 1 
24 13 14 1 
25 14 15 1 
ITEM: TIMESTEP
39300
ITEM: NUMBER OF ENTRIES
25
ITEM: BOX BOUNDS pp pp pp
-1.0000000000000000e+01 1.0000000000000000e+01
-1.0000000000000000e+01 1.0000000000000000e+01
-1.0000000000000000e+01 1.0000000000000000e+01
ITEM: ENTRIES index c_bondedatomid1 c_bondedatomid2 c_btype
1 29 30 1 
2 19 20 1 
3 28 29 1 
4 21 29 2 
5 7 8 1 
6 8 9 1 
7 20 21 1 
8 18 28 2 
9 18 20 2 
10 17 18 1 
11 22 23 1 
12 16 17 1 
13 16 29 2 
14 16 19 2 
15 23 24 1 
16 5 6 1 
17 4 5 1 
18 11 12 1 
19 10 11 1 
20 26 27 1 
21 25 26 1 
22 1 2 1 
23 2 3 1 
24 13 14 1 
25 14 15 1 
ITEM: TIMESTEP
39400
ITEM: NUMBER OF ENTRIES
25
ITEM: BOX BOUNDS pp pp pp
-1.0000000000000000e+01 1.0000000000000000e+01
-1.0000000000000000e+01 1.0000000000000000e+01
-1.0000000000000000e+01 1.0000000000000000e+01
ITEM: ENTRIES index c_bondedatomid1 c_bondedatomid2 c_btype
1 29 30 1 
2 19 20 1 
3 28 29 1 
4 21 29 2 
5 7 8 1 
6 8 9 1 
7 20 21 1 
8 18 28 2 
9 18 20 2 
10 17 18 1 
11 22 23 1 
12 16 17 1 
13 16 29 2 
14 16 19 2 
15 23 24 1 
16 5 6 1 
17 4 5 1 
18 11 12 1 
19 10 11 1 
20 26 27 1 
21 25 26 1 
22 1 2 1 
23 2 3 1 
24 13 14 1 
25 14 15 1 
ITEM: TIMESTEP
39500
ITEM: NUMBER OF ENTRIES
25
ITEM: BOX BOUNDS pp pp pp
-1.0000000000000000e+01 1.0000000000000000e+01
-1.0000000000000000e+01 1.0000000000000000e+01
-1.0000000000000000e+01 1.0000000000000000e+01
ITEM: ENTRIES index c_bondedatomid1 c_bondedatomid2 c_btype
1 29 30 1 
2 19 20 1 
3 28 29 1 
4 21 29 2 
5 7 8 1 
6 8 9 1 
7 20 21 1 
8 18 28 2 
9 18 20 2 
10 17 18 1 
11 22 23 1 
12 16 17 1 
13 16 29 2 
14 16 19 2 
15 23 24 1 
16 5 6 1 
17 4 5 1 
18 11 12 1 
19 10 11 1 
20 26 27 1 
21 25 26 1 
22 1 2 1 
23 2 3 1 
24 13 14 1 
25 14 15 1 
ITEM: TIMESTEP
39600
ITEM: NUMBER OF ENTRIES
25
ITEM: BOX BOUNDS pp pp pp
-1.0000000000000000e+01 1.0000000000000000e+01
-1.0000000000000000e+01 1.0000000000000000e+01
-1.0000000000000000e+01 1.0000000000000000e+01
ITEM: ENTRIES index c_bondedatomid1 c_bondedatomid2 c_btype
1 29 30 1 
2 19 20 1 
3 28 29 1 
4 21 29 2 
5 7 8 1 
6 8 9 1 
7 20 21 1 
8 18 28 2 
9 18 20 2 
10 17 18 1 
11 22 23 1 
12 16 17 1 
13 16 29 2 
14 16 19 2 
15 23 24 1 
16 5 6 1 
17 4 5 1 
18 11 12 1 
19 10 11 1 
20 26 27 1 
21 25 26 1 
22 1 2 1 
23 2 3 1 
24 13 14 1 
25 14 15 1 
ITEM: TIMESTEP
39700
ITEM: NUMBER OF ENTRIES
25
ITEM: BOX BOUNDS pp pp pp
-1.0000000000000000e+01 1.0000000000000000e+01
-1.0000000000000000e+01 1.0000000000000000e+01
-1.0000000000000000e+01 1.0000000000000000e+01
ITEM: ENTRIES index c_bondedatomid1 c_bondedatomid2 c_btype
1 29 30 1 
2 19 20 1 
3 28 29 1 
4 21 29 2 
5 7 8 1 
6 8 9 1 
7 20 21 1 
8 18 28 2 
9 18 20 2 
10 17 18 1 
11 22 23 1 
12 16 17 1 
13 16 29 2 
14 16 19 2 
15 23 24 1 
16 5 6 1 
17 4 5 1 
18 11 12 1 
19 10 11 1 
20 26 27 1 
21 25 26 1 
22 1 2 1 
23 2 3 1 
24 13 14 1 
25 14 15 1 
ITEM: TIMESTEP
39800
ITEM: NUMBER OF ENTRIES
25
ITEM: BOX BOUNDS pp pp pp
-1.0000000000000000e+01 1.0000000000000000e+01
-1.0000000000000000e+01 1.0000000000000000e+01
-1.0000000000000000e+01 1.0000000000000000e+01
ITEM: ENTRIES index c_bondedatomid1 c_bondedatomid2 c_btype
1 29 30 1 
2 19 20 1 
3 28 29 1 
4 21 29 2 
5 7 8 1 
6 8 9 1 
7 20 21 1 
8 18 28 2 
9 18 20 2 
10 17 18 1 
11 22 23 1 
12 16 17 1 
13 16 29 2 
14 16 19 2 
15 23 24 1 
16 5 6 1 
17 4 5 1 
18 11 12 1 
19 10 11 1 
20 26 27 1 
21 25 26 1 
22 1 2 1 
23 2 3 1 
24 13 14 1 
25 14 15 1 
ITEM: TIMESTEP
39900
ITEM: NUMBER OF ENTRIES
25
ITEM: BOX BOUNDS pp pp pp
-1.0000000000000000e+01 1.0000000000000000e+01
-1.0000000000000000e+01 1.0000000000000000e+01
-1.0000000000000000e+01 1.0000000000000000e+01
ITEM: ENTRIES index c_bondedatomid1 c_bondedatomid2 c_btype
1 29 30 1 
2 19 20 1 
3 28 29 1 
4 21 29 2 
5 7 8 1 
6 8 9 1 
7 20 21 1 
8 18 28 2 
9 18 20 2 
10 17 18 1 
11 22 23 1 
12 16 17 1 
13 16 29 2 
14 16 19 2 
15 23 24 1 
16 5 6 1 
17 4 5 1 
18 11 12 1 
19 10 11 1 
20 26 27 1 
21 25 26 1 
22 1 2 1 
23 2 3 1 
24 13 14 1 
25 14 15 1 
ITEM: TIMESTEP
40000
ITEM: NUMBER OF ENTRIES
25
ITEM: BOX BOUNDS pp pp pp
-1.0000000000000000e+01 1.0000000000000000e+01
-1.0000000000000000e+01 1.0000000000000000e+01
-1.0000000000000000e+01 1.0000000000000000e+01
ITEM: ENTRIES index c_bondedatomid1 c_bondedatomid2 c_btype
1 29 30 1 
2 19 20 1 
3 28 29 1 
4 21 29 2 
5 7 8 1 
6 8 9 1 
7 20 21 1 
8 18 28 2 
9 18 20 2 
10 17 18 1 
11 22 23 1 
12 16 17 1 
13 16 29 2 
14 16 19 2 
15 23 24 1 
16 5 6 1 
17 4 5 1 
18 11 12 1 
19 10 11 1 
20 26 27 1 
21 25 26 1 
22 1 2 1 
23 2 3 1 
24 13 14 1 
25 14 15 1 
ITEM: TIMESTEP
40100
ITEM: NUMBER OF ENTRIES
25
ITEM: BOX BOUNDS pp pp pp
-1.0000000000000000e+01 1.0000000000000000e+01
-1.0000000000000000e+01 1.0000000000000000e+01
-1.0000000000000000e+01 1.0000000000000000e+01
ITEM: ENTRIES index c_bondedatomid1 c_bondedatomid2 c_btype
1 29 30 1 
2 19 20 1 
3 28 29 1 
4 21 29 2 
5 7 8 1 
6 8 9 1 
7 20 21 1 
8 18 28 2 
9 18 20 2 
10 17 18 1 
11 22 23 1 
12 16 17 1 
13 16 29 2 
14 16 19 2 
15 23 24 1 
16 5 6 1 
17 4 5 1 
18 11 12 1 
19 10 11 1 
20 26 27 1 
21 25 26 1 
22 1 2 1 
23 2 3 1 
24 13 14 1 
25 14 15 1 
ITEM: TIMESTEP
40200
ITEM: NUMBER OF ENTRIES
25
ITEM: BOX BOUNDS pp pp pp
-1.0000000000000000e+01 1.0000000000000000e+01
-1.0000000000000000e+01 1.0000000000000000e+01
-1.0000000000000000e+01 1.0000000000000000e+01
ITEM: ENTRIES index c_bondedatomid1 c_bondedatomid2 c_btype
1 28 29 1 
2 21 29 2 
3 17 18 1 
4 16 17 1 
5 16 29 2 
6 16 19 2 
7 8 9 1 
8 29 30 1 
9 19 20 1 
10 20 21 1 
11 18 28 2 
12 18 20 2 
13 22 23 1 
14 23 24 1 
15 5 6 1 
16 7 8 1 
17 11 12 1 
18 10 11 1 
19 4 5 1 
20 26 27 1 
21 25 26 1 
22 13 14 1 
23 1 2 1 
24 2 3 1 
25 14 15 1 
ITEM: TIMESTEP
40300
ITEM: NUMBER OF ENTRIES
25
ITEM: BOX BOUNDS pp pp pp
-1.0000000000000000e+01 1.0000000000000000e+01
-1.0000000000000000e+01 1.0000000000000000e+01
-1.0000000000000000e+01 1.0000000000000000e+01
ITEM: ENTRIES index c_bondedatomid1 c_bondedatomid2 c_btype
1 28 29 1 
2 21 29 2 
3 17 18 1 
4 16 17 1 
5 16 29 2 
6 16 19 2 
7 8 9 1 
8 29 30 1 
9 19 20 1 
10 20 21 1 
11 18 28 2 
12 18 20 2 
13 22 23 1 
14 23 24 1 
15 5 6 1 
16 7 8 1 
17 11 12 1 
18 10 11 1 
19 4 5 1 
20 26 27 1 
21 25 26 1 
22 13 14 1 
23 1 2 1 
24 2 3 1 
25 14 15 1 
ITEM: TIMESTEP
40400
ITEM: NUMBER OF ENTRIES
25
ITEM: BOX BOUNDS pp pp pp
-1.0000000000000000e+01 1.0000000000000000e+01
-1.0000000000000000e+01 1.0000000000000000e+01
-1.0000000000000000e+01 1.0000000000000000e+01
ITEM: ENTRIES index c_bondedatomid1 c_bondedatomid2 c_btype
1 28 29 1 
2 21 29 2 
3 17 18 1 
4 16 17 1 
5 16 29 2 
6 16 19 2 
7 8 9 1 
8 29 30 1 
9 19 20 1 
10 20 21 1 
11 18 28 2 
12 18 20 2 
13 22 23 1 
14 23 24 1 
15 5 6 1 
16 7 8 1 
17 11 12 1 
18 10 11 1 
19 4 5 1 
20 26 27 1 
21 25 26 1 
22 13 14 1 
23 1 2 1 
24 2 3 1 
25 14 15 1 
ITEM: TIMESTEP
40500
ITEM: NUMBER OF ENTRIES
25
ITEM: BOX BOUNDS pp pp pp
-1.0000000000000000e+01 1.0000000000000000e+01
-1.0000000000000000e+01 1.0000000000000000e+01
-1.0000000000000000e+01 1.0000000000000000e+01
ITEM: ENTRIES index c_bondedatomid1 c_bondedatomid2 c_btype
1 28 29 1 
2 21 29 2 
3 17 18 1 
4 16 17 1 
5 16 29 2 
6 16 19 2 
7 8 9 1 
8 29 30 1 
9 19 20 1 
10 20 21 1 
11 18 28 2 
12 18 20 2 
13 22 23 1 
14 23 24 1 
15 5 6 1 
16 7 8 1 
17 11 12 1 
18 10 11 1 
19 4 5 1 
20 26 27 1 
21 25 26 1 
22 13 14 1 
23 1 2 1 
24 2 3 1 
25 14 15 1 
ITEM: TIMESTEP
40600
ITEM: NUMBER OF ENTRIES
25
ITEM: BOX BOUNDS pp pp pp
-1.0000000000000000e+01 1.0000000000000000e+01
-1.0000000000000000e+01 1.0000000000000000e+01
-1.0000000000000000e+01 1.0000000000000000e+01
ITEM: ENTRIES index c_bondedatomid1 c_bondedatomid2 c_btype
1 28 29 1 
2 21 29 2 
3 17 18 1 
4 16 17 1 
5 16 29 2 
6 16 19 2 
7 8 9 1 
8 29 30 1 
9 19 20 1 
10 20 21 1 
11 18 28 2 
12 18 20 2 
13 22 23 1 
14 23 24 1 
15 5 6 1 
16 7 8 1 
17 11 12 1 
18 10 11 1 
19 4 5 1 
20 26 27 1 
21 25 26 1 
22 13 14 1 
23 1 2 1 
24 2 3 1 
25 14 15 1 
ITEM: TIMESTEP
40700
ITEM: NUMBER OF ENTRIES
25
ITEM: BOX BOUNDS pp pp pp
-1.0000000000000000e+01 1.0000000000000000e+01
-1.0000000000000000e+01 1.0000000000000000e+01
-1.0000000000000000e+01 1.0000000000000000e+01
ITEM: ENTRIES index c_bondedatomid1 c_bondedatomid2 c_btype
1 28 29 1 
2 21 29 2 
3 17 18 1 
4 16 17 1 
5 16 29 2 
6 16 19 2 
7 8 9 1 
8 29 30 1 
9 19 20 1 
10 20 21 1 
11 18 28 2 
12 18 20 2 
13 22 23 1 
14 23 24 1 
15 5 6 1 
16 7 8 1 
17 11 12 1 
18 10 11 1 
19 4 5 1 
20 26 27 1 
21 25 26 1 
22 13 14 1 
23 1 2 1 
24 2 3 1 
25 14 15 1 
ITEM: TIMESTEP
40800
ITEM: NUMBER OF ENTRIES
25
ITEM: BOX BOUNDS pp pp pp
-1.0000000000000000e+01 1.0000000000000000e+01
-1.0000000000000000e+01 1.0000000000000000e+01
-1.0000000000000000e+01 1.0000000000000000e+01
ITEM: ENTRIES index c_bondedatomid1 c_bondedatomid2 c_btype
1 28 29 1 
2 21 29 2 
3 17 18 1 
4 16 17 1 
5 16 29 2 
6 16 19 2 
7 8 9 1 
8 29 30 1 
9 19 20 1 
10 20 21 1 
11 18 28 2 
12 18 20 2 
13 22 23 1 
14 23 24 1 
15 5 6 1 
16 7 8 1 
17 11 12 1 
18 10 11 1 
19 4 5 1 
20 26 27 1 
21 25 26 1 
22 13 14 1 
23 1 2 1 
24 2 3 1 
25 14 15 1 
ITEM: TIMESTEP
40900
ITEM: NUMBER OF ENTRIES
25
ITEM: BOX BOUNDS pp pp pp
-1.0000000000000000e+01 1.0000000000000000e+01
-1.0000000000000000e+01 1.0000000000000000e+01
-1.0000000000000000e+01 1.0000000000000000e+01
ITEM: ENTRIES index c_bondedatomid1 c_bondedatomid2 c_btype
1 28 29 1 
2 21 29 2 
3 17 18 1 
4 16 17 1 
5 16 29 2 
6 16 19 2 
7 8 9 1 
8 29 30 1 
9 19 20 1 
10 20 21 1 
11 18 28 2 
12 18 20 2 
13 22 23 1 
14 23 24 1 
15 5 6 1 
16 7 8 1 
17 11 12 1 
18 10 11 1 
19 4 5 1 
20 26 27 1 
21 25 26 1 
22 13 14 1 
23 1 2 1 
24 2 3 1 
25 14 15 1 
ITEM: TIMESTEP
41000
ITEM: NUMBER OF ENTRIES
25
ITEM: BOX BOUNDS pp pp pp
-1.0000000000000000e+01 1.0000000000000000e+01
-1.0000000000000000e+01 1.0000000000000000e+01
-1.0000000000000000e+01 1.0000000000000000e+01
ITEM: ENTRIES index c_bondedatomid1 c_bondedatomid2 c_btype
1 28 29 1 
2 21 29 2 
3 17 18 1 
4 16 17 1 
5 16 29 2 
6 16 19 2 
7 8 9 1 
8 29 30 1 
9 19 20 1 
10 20 21 1 
11 18 28 2 
12 18 20 2 
13 22 23 1 
14 23 24 1 
15 5 6 1 
16 7 8 1 
17 11 12 1 
18 10 11 1 
19 4 5 1 
20 26 27 1 
21 25 26 1 
22 13 14 1 
23 1 2 1 
24 2 3 1 
25 14 15 1 
ITEM: TIMESTEP
41100
ITEM: NUMBER OF ENTRIES
25
ITEM: BOX BOUNDS pp pp pp
-1.0000000000000000e+01 1.0000000000000000e+01
-1.0000000000000000e+01 1.0000000000000000e+01
-1.0000000000000000e+01 1.0000000000000000e+01
ITEM: ENTRIES index c_bondedatomid1 c_bondedatomid2 c_btype
1 28 29 1 
2 21 29 2 
3 17 18 1 
4 16 17 1 
5 16 29 2 
6 16 19 2 
7 8 9 1 
8 29 30 1 
9 19 20 1 
10 20 21 1 
11 18 28 2 
12 18 20 2 
13 22 23 1 
14 23 24 1 
15 5 6 1 
16 7 8 1 
17 11 12 1 
18 10 11 1 
19 4 5 1 
20 26 27 1 
21 25 26 1 
22 13 14 1 
23 1 2 1 
24 2 3 1 
25 14 15 1 
ITEM: TIMESTEP
41200
ITEM: NUMBER OF ENTRIES
25
ITEM: BOX BOUNDS pp pp pp
-1.0000000000000000e+01 1.0000000000000000e+01
-1.0000000000000000e+01 1.0000000000000000e+01
-1.0000000000000000e+01 1.0000000000000000e+01
ITEM: ENTRIES index c_bondedatomid1 c_bondedatomid2 c_btype
1 16 17 1 
2 16 29 2 
3 16 19 2 
4 18 28 2 
5 18 20 2 
6 17 18 1 
7 8 9 1 
8 28 29 1 
9 21 29 2 
10 29 30 1 
11 19 20 1 
12 20 21 1 
13 22 23 1 
14 23 24 1 
15 5 6 1 
16 7 8 1 
17 11 12 1 
18 10 11 1 
19 4 5 1 
20 26 27 1 
21 25 26 1 
22 1 2 1 
23 2 3 1 
24 13 14 1 
25 14 15 1 
ITEM: TIMESTEP
41300
ITEM: NUMBER OF ENTRIES
25
ITEM: BOX BOUNDS pp pp pp
-1.0000000000000000e+01 1.0000000000000000e+01
-1.0000000000000000e+01 1.0000000000000000e+01
-1.0000000000000000e+01 1.0000000000000000e+01
ITEM: ENTRIES index c_bondedatomid1 c_bondedatomid2 c_btype
1 16 17 1 
2 16 29 2 
3 16 19 2 
4 18 28 2 
5 18 20 2 
6 17 18 1 
7 8 9 1 
8 28 29 1 
9 21 29 2 
10 29 30 1 
11 19 20 1 
12 20 21 1 
13 22 23 1 
14 23 24 1 
15 5 6 1 
16 7 8 1 
17 11 12 1 
18 10 11 1 
19 4 5 1 
20 26 27 1 
21 25 26 1 
22 1 2 1 
23 2 3 1 
24 13 14 1 
25 14 15 1 
ITEM: TIMESTEP
41400
ITEM: NUMBER OF ENTRIES
25
ITEM: BOX BOUNDS pp pp pp
-1.0000000000000000e+01 1.0000000000000000e+01
-1.0000000000000000e+01 1.0000000000000000e+01
-1.0000000000000000e+01 1.0000000000000000e+01
ITEM: ENTRIES index c_bondedatomid1 c_bondedatomid2 c_btype
1 16 17 1 
2 16 29 2 
3 16 19 2 
4 18 28 2 
5 18 20 2 
6 17 18 1 
7 8 9 1 
8 28 29 1 
9 21 29 2 
10 29 30 1 
11 19 20 1 
12 20 21 1 
13 22 23 1 
14 23 24 1 
15 5 6 1 
16 7 8 1 
17 11 12 1 
18 10 11 1 
19 4 5 1 
20 26 27 1 
21 25 26 1 
22 1 2 1 
23 2 3 1 
24 13 14 1 
25 14 15 1 
ITEM: TIMESTEP
41500
ITEM: NUMBER OF ENTRIES
25
ITEM: BOX BOUNDS pp pp pp
-1.0000000000000000e+01 1.0000000000000000e+01
-1.0000000000000000e+01 1.0000000000000000e+01
-1.0000000000000000e+01 1.0000000000000000e+01
ITEM: ENTRIES index c_bondedatomid1 c_bondedatomid2 c_btype
1 16 17 1 
2 16 29 2 
3 16 19 2 
4 18 28 2 
5 18 20 2 
6 17 18 1 
7 8 9 1 
8 28 29 1 
9 21 29 2 
10 29 30 1 
11 19 20 1 
12 20 21 1 
13 22 23 1 
14 23 24 1 
15 5 6 1 
16 7 8 1 
17 11 12 1 
18 10 11 1 
19 4 5 1 
20 26 27 1 
21 25 26 1 
22 1 2 1 
23 2 3 1 
24 13 14 1 
25 14 15 1 
ITEM: TIMESTEP
41600
ITEM: NUMBER OF ENTRIES
25
ITEM: BOX BOUNDS pp pp pp
-1.0000000000000000e+01 1.0000000000000000e+01
-1.0000000000000000e+01 1.0000000000000000e+01
-1.0000000000000000e+01 1.0000000000000000e+01
ITEM: ENTRIES index c_bondedatomid1 c_bondedatomid2 c_btype
1 16 17 1 
2 16 29 2 
3 16 19 2 
4 18 28 2 
5 18 20 2 
6 17 18 1 
7 8 9 1 
8 28 29 1 
9 21 29 2 
10 29 30 1 
11 19 20 1 
12 20 21 1 
13 22 23 1 
14 23 24 1 
15 5 6 1 
16 7 8 1 
17 11 12 1 
18 10 11 1 
19 4 5 1 
20 26 27 1 
21 25 26 1 
22 1 2 1 
23 2 3 1 
24 13 14 1 
25 14 15 1 
ITEM: TIMESTEP
41700
ITEM: NUMBER OF ENTRIES
25
ITEM: BOX BOUNDS pp pp pp
-1.0000000000000000e+01 1.0000000000000000e+01
-1.0000000000000000e+01 1.0000000000000000e+01
-1.0000000000000000e+01 1.0000000000000000e+01
ITEM: ENTRIES index c_bondedatomid1 c_bondedatomid2 c_btype
1 16 17 1 
2 16 29 2 
3 16 19 2 
4 18 28 2 
5 18 20 2 
6 17 18 1 
7 8 9 1 
8 28 29 1 
9 21 29 2 
10 29 30 1 
11 19 20 1 
12 20 21 1 
13 22 23 1 
14 23 24 1 
15 5 6 1 
16 7 8 1 
17 11 12 1 
18 10 11 1 
19 4 5 1 
20 26 27 1 
21 25 26 1 
22 1 2 1 
23 2 3 1 
24 13 14 1 
25 14 15 1 
ITEM: TIMESTEP
41800
ITEM: NUMBER OF ENTRIES
25
ITEM: BOX BOUNDS pp pp pp
-1.0000000000000000e+01 1.0000000000000000e+01
-1.0000000000000000e+01 1.0000000000000000e+01
-1.0000000000000000e+01 1.0000000000000000e+01
ITEM: ENTRIES index c_bondedatomid1 c_bondedatomid2 c_btype
1 16 17 1 
2 16 29 2 
3 16 19 2 
4 18 28 2 
5 18 20 2 
6 17 18 1 
7 8 9 1 
8 28 29 1 
9 21 29 2 
10 29 30 1 
11 19 20 1 
12 20 21 1 
13 22 23 1 
14 23 24 1 
15 5 6 1 
16 7 8 1 
17 11 12 1 
18 10 11 1 
19 4 5 1 
20 26 27 1 
21 25 26 1 
22 1 2 1 
23 2 3 1 
24 13 14 1 
25 14 15 1 
ITEM: TIMESTEP
41900
ITEM: NUMBER OF ENTRIES
25
ITEM: BOX BOUNDS pp pp pp
-1.0000000000000000e+01 1.0000000000000000e+01
-1.0000000000000000e+01 1.0000000000000000e+01
-1.0000000000000000e+01 1.0000000000000000e+01
ITEM: ENTRIES index c_bondedatomid1 c_bondedatomid2 c_btype
1 16 17 1 
2 16 29 2 
3 16 19 2 
4 18 28 2 
5 18 20 2 
6 17 18 1 
7 8 9 1 
8 28 29 1 
9 21 29 2 
10 29 30 1 
11 19 20 1 
12 20 21 1 
13 22 23 1 
14 23 24 1 
15 5 6 1 
16 7 8 1 
17 11 12 1 
18 10 11 1 
19 4 5 1 
20 26 27 1 
21 25 26 1 
22 1 2 1 
23 2 3 1 
24 13 14 1 
25 14 15 1 
ITEM: TIMESTEP
42000
ITEM: NUMBER OF ENTRIES
25
ITEM: BOX BOUNDS pp pp pp
-1.0000000000000000e+01 1.0000000000000000e+01
-1.0000000000000000e+01 1.0000000000000000e+01
-1.0000000000000000e+01 1.0000000000000000e+01
ITEM: ENTRIES index c_bondedatomid1 c_bondedatomid2 c_btype
1 16 17 1 
2 16 29 2 
3 16 19 2 
4 18 28 2 
5 18 20 2 
6 17 18 1 
7 8 9 1 
8 28 29 1 
9 21 29 2 
10 29 30 1 
11 19 20 1 
12 20 21 1 
13 22 23 1 
14 23 24 1 
15 5 6 1 
16 7 8 1 
17 11 12 1 
18 10 11 1 
19 4 5 1 
20 26 27 1 
21 25 26 1 
22 1 2 1 
23 2 3 1 
24 13 14 1 
25 14 15 1 
ITEM: TIMESTEP
42100
ITEM: NUMBER OF ENTRIES
25
ITEM: BOX BOUNDS pp pp pp
-1.0000000000000000e+01 1.0000000000000000e+01
-1.0000000000000000e+01 1.0000000000000000e+01
-1.0000000000000000e+01 1.0000000000000000e+01
ITEM: ENTRIES index c_bondedatomid1 c_bondedatomid2 c_btype
1 20 21 1 
2 8 9 1 
3 16 17 1 
4 16 29 2 
5 16 19 2 
6 18 28 2 
7 18 20 2 
8 17 18 1 
9 28 29 1 
10 21 29 2 
11 29 30 1 
12 22 23 1 
13 23 24 1 
14 19 20 1 
15 5 6 1 
16 7 8 1 
17 11 12 1 
18 10 11 1 
19 4 5 1 
20 26 27 1 
21 25 26 1 
22 1 2 1 
23 2 3 1 
24 14 15 1 
25 13 14 1 
ITEM: TIMESTEP
42200
ITEM: NUMBER OF ENTRIES
25
ITEM: BOX BOUNDS pp pp pp
-1.0000000000000000e+01 1.0000000000000000e+01
-1.0000000000000000e+01 1.0000000000000000e+01
-1.0000000000000000e+01 1.0000000000000000e+01
ITEM: ENTRIES index c_bondedatomid1 c_bondedatomid2 c_btype
1 20 21 1 
2 8 9 1 
3 16 17 1 
4 16 29 2 
5 16 19 2 
6 18 28 2 
7 18 20 2 
8 17 18 1 
9 28 29 1 
10 21 29 2 
11 29 30 1 
12 22 23 1 
13 23 24 1 
14 19 20 1 
15 5 6 1 
16 7 8 1 
17 11 12 1 
18 10 11 1 
19 4 5 1 
20 26 27 1 
21 25 26 1 
22 1 2 1 
23 2 3 1 
24 14 15 1 
25 13 14 1 
ITEM: TIMESTEP
42300
ITEM: NUMBER OF ENTRIES
25
ITEM: BOX BOUNDS pp pp pp
-1.0000000000000000e+01 1.0000000000000000e+01
-1.0000000000000000e+01 1.0000000000000000e+01
-1.0000000000000000e+01 1.0000000000000000e+01
ITEM: ENTRIES index c_bondedatomid1 c_bondedatomid2 c_btype
1 20 21 1 
2 8 9 1 
3 16 17 1 
4 16 29 2 
5 16 19 2 
6 18 28 2 
7 18 20 2 
8 17 18 1 
9 28 29 1 
10 21 29 2 
11 29 30 1 
12 22 23 1 
13 23 24 1 
14 19 20 1 
15 5 6 1 
16 7 8 1 
17 11 12 1 
18 10 11 1 
19 4 5 1 
20 26 27 1 
21 25 26 1 
22 1 2 1 
23 2 3 1 
24 14 15 1 
25 13 14 1 
ITEM: TIMESTEP
42400
ITEM: NUMBER OF ENTRIES
25
ITEM: BOX BOUNDS pp pp pp
-1.0000000000000000e+01 1.0000000000000000e+01
-1.0000000000000000e+01 1.0000000000000000e+01
-1.0000000000000000e+01 1.0000000000000000e+01
ITEM: ENTRIES index c_bondedatomid1 c_bondedatomid2 c_btype
1 20 21 1 
2 8 9 1 
3 16 17 1 
4 16 29 2 
5 16 19 2 
6 18 28 2 
7 18 20 2 
8 17 18 1 
9 28 29 1 
10 21 29 2 
11 29 30 1 
12 22 23 1 
13 23 24 1 
14 19 20 1 
15 5 6 1 
16 7 8 1 
17 11 12 1 
18 10 11 1 
19 4 5 1 
20 26 27 1 
21 25 26 1 
22 1 2 1 
23 2 3 1 
24 14 15 1 
25 13 14 1 
ITEM: TIMESTEP
42500
ITEM: NUMBER OF ENTRIES
25
ITEM: BOX BOUNDS pp pp pp
-1.0000000000000000e+01 1.0000000000000000e+01
-1.0000000000000000e+01 1.0000000000000000e+01
-1.0000000000000000e+01 1.0000000000000000e+01
ITEM: ENTRIES index c_bondedatomid1 c_bondedatomid2 c_btype
1 20 21 1 
2 8 9 1 
3 16 17 1 
4 16 29 2 
5 16 19 2 
6 18 28 2 
7 18 20 2 
8 17 18 1 
9 28 29 1 
10 21 29 2 
11 29 30 1 
12 22 23 1 
13 23 24 1 
14 19 20 1 
15 5 6 1 
16 7 8 1 
17 11 12 1 
18 10 11 1 
19 4 5 1 
20 26 27 1 
21 25 26 1 
22 1 2 1 
23 2 3 1 
24 14 15 1 
25 13 14 1 
ITEM: TIMESTEP
42600
ITEM: NUMBER OF ENTRIES
25
ITEM: BOX BOUNDS pp pp pp
-1.0000000000000000e+01 1.0000000000000000e+01
-1.0000000000000000e+01 1.0000000000000000e+01
-1.0000000000000000e+01 1.0000000000000000e+01
ITEM: ENTRIES index c_bondedatomid1 c_bondedatomid2 c_btype
1 20 21 1 
2 8 9 1 
3 16 17 1 
4 16 29 2 
5 16 19 2 
6 18 28 2 
7 18 20 2 
8 17 18 1 
9 28 29 1 
10 21 29 2 
11 29 30 1 
12 22 23 1 
13 23 24 1 
14 19 20 1 
15 5 6 1 
16 7 8 1 
17 11 12 1 
18 10 11 1 
19 4 5 1 
20 26 27 1 
21 25 26 1 
22 1 2 1 
23 2 3 1 
24 14 15 1 
25 13 14 1 
ITEM: TIMESTEP
42700
ITEM: NUMBER OF ENTRIES
25
ITEM: BOX BOUNDS pp pp pp
-1.0000000000000000e+01 1.0000000000000000e+01
-1.0000000000000000e+01 1.0000000000000000e+01
-1.0000000000000000e+01 1.0000000000000000e+01
ITEM: ENTRIES index c_bondedatomid1 c_bondedatomid2 c_btype
1 20 21 1 
2 8 9 1 
3 16 17 1 
4 16 29 2 
5 16 19 2 
6 18 28 2 
7 18 20 2 
8 17 18 1 
9 28 29 1 
10 21 29 2 
11 29 30 1 
12 22 23 1 
13 23 24 1 
14 19 20 1 
15 5 6 1 
16 7 8 1 
17 11 12 1 
18 10 11 1 
19 4 5 1 
20 26 27 1 
21 25 26 1 
22 1 2 1 
23 2 3 1 
24 14 15 1 
25 13 14 1 
ITEM: TIMESTEP
42800
ITEM: NUMBER OF ENTRIES
25
ITEM: BOX BOUNDS pp pp pp
-1.0000000000000000e+01 1.0000000000000000e+01
-1.0000000000000000e+01 1.0000000000000000e+01
-1.0000000000000000e+01 1.0000000000000000e+01
ITEM: ENTRIES index c_bondedatomid1 c_bondedatomid2 c_btype
1 20 21 1 
2 8 9 1 
3 16 17 1 
4 16 29 2 
5 16 19 2 
6 18 28 2 
7 18 20 2 
8 17 18 1 
9 28 29 1 
10 21 29 2 
11 29 30 1 
12 22 23 1 
13 23 24 1 
14 19 20 1 
15 5 6 1 
16 7 8 1 
17 11 12 1 
18 10 11 1 
19 4 5 1 
20 26 27 1 
21 25 26 1 
22 1 2 1 
23 2 3 1 
24 14 15 1 
25 13 14 1 
ITEM: TIMESTEP
42900
ITEM: NUMBER OF ENTRIES
25
ITEM: BOX BOUNDS pp pp pp
-1.0000000000000000e+01 1.0000000000000000e+01
-1.0000000000000000e+01 1.0000000000000000e+01
-1.0000000000000000e+01 1.0000000000000000e+01
ITEM: ENTRIES index c_bondedatomid1 c_bondedatomid2 c_btype
1 20 21 1 
2 8 9 1 
3 16 17 1 
4 16 29 2 
5 16 19 2 
6 18 28 2 
7 18 20 2 
8 17 18 1 
9 28 29 1 
10 21 29 2 
11 29 30 1 
12 22 23 1 
13 23 24 1 
14 19 20 1 
15 5 6 1 
16 7 8 1 
17 11 12 1 
18 10 11 1 
19 4 5 1 
20 26 27 1 
21 25 26 1 
22 1 2 1 
23 2 3 1 
24 14 15 1 
25 13 14 1 
ITEM: TIMESTEP
43000
ITEM: NUMBER OF ENTRIES
25
ITEM: BOX BOUNDS pp pp pp
-1.0000000000000000e+01 1.0000000000000000e+01
-1.0000000000000000e+01 1.0000000000000000e+01
-1.0000000000000000e+01 1.0000000000000000e+01
ITEM: ENTRIES index c_bondedatomid1 c_bondedatomid2 c_btype
1 20 21 1 
2 8 9 1 
3 16 17 1 
4 16 29 2 
5 16 19 2 
6 18 28 2 
7 18 20 2 
8 17 18 1 
9 28 29 1 
10 21 29 2 
11 29 30 1 
12 22 23 1 
13 23 24 1 
14 19 20 1 
15 5 6 1 
16 7 8 1 
17 11 12 1 
18 10 11 1 
19 4 5 1 
20 26 27 1 
21 25 26 1 
22 1 2 1 
23 2 3 1 
24 14 15 1 
25 13 14 1 
ITEM: TIMESTEP
43100
ITEM: NUMBER OF ENTRIES
25
ITEM: BOX BOUNDS pp pp pp
-1.0000000000000000e+01 1.0000000000000000e+01
-1.0000000000000000e+01 1.0000000000000000e+01
-1.0000000000000000e+01 1.0000000000000000e+01
ITEM: ENTRIES index c_bondedatomid1 c_bondedatomid2 c_btype
1 20 21 1 
2 8 9 1 
3 16 17 1 
4 16 29 2 
5 16 19 2 
6 18 28 2 
7 18 20 2 
8 17 18 1 
9 28 29 1 
10 21 29 2 
11 29 30 1 
12 22 23 1 
13 23 24 1 
14 19 20 1 
15 5 6 1 
16 7 8 1 
17 11 12 1 
18 10 11 1 
19 4 5 1 
20 26 27 1 
21 25 26 1 
22 1 2 1 
23 2 3 1 
24 14 15 1 
25 13 14 1 
ITEM: TIMESTEP
43200
ITEM: NUMBER OF ENTRIES
25
ITEM: BOX BOUNDS pp pp pp
-1.0000000000000000e+01 1.0000000000000000e+01
-1.0000000000000000e+01 1.0000000000000000e+01
-1.0000000000000000e+01 1.0000000000000000e+01
ITEM: ENTRIES index c_bondedatomid1 c_bondedatomid2 c_btype
1 7 8 1 
2 8 9 1 
3 20 21 1 
4 16 17 1 
5 16 29 2 
6 16 19 2 
7 18 28 2 
8 18 20 2 
9 28 29 1 
10 21 29 2 
11 29 30 1 
12 19 20 1 
13 22 23 1 
14 23 24 1 
15 17 18 1 
16 11 12 1 
17 10 11 1 
18 5 6 1 
19 4 5 1 
20 26 27 1 
21 25 26 1 
22 1 2 1 
23 2 3 1 
24 14 15 1 
25 13 14 1 
ITEM: TIMESTEP
43300
ITEM: NUMBER OF ENTRIES
25
ITEM: BOX BOUNDS pp pp pp
-1.0000000000000000e+01 1.0000000000000000e+01
-1.0000000000000000e+01 1.0000000000000000e+01
-1.0000000000000000e+01 1.0000000000000000e+01
ITEM: ENTRIES index c_bondedatomid1 c_bondedatomid2 c_btype
1 7 8 1 
2 8 9 1 
3 20 21 1 
4 16 17 1 
5 16 29 2 
6 16 19 2 
7 18 28 2 
8 18 20 2 
9 28 29 1 
10 21 29 2 
11 29 30 1 
12 19 20 1 
13 22 23 1 
14 23 24 1 
15 17 18 1 
16 11 12 1 
17 10 11 1 
18 5 6 1 
19 4 5 1 
20 26 27 1 
21 25 26 1 
22 1 2 1 
23 2 3 1 
24 14 15 1 
25 13 14 1 
ITEM: TIMESTEP
43400
ITEM: NUMBER OF ENTRIES
25
ITEM: BOX BOUNDS pp pp pp
-1.0000000000000000e+01 1.0000000000000000e+01
-1.0000000000000000e+01 1.0000000000000000e+01
-1.0000000000000000e+01 1.0000000000000000e+01
ITEM: ENTRIES index c_bondedatomid1 c_bondedatomid2 c_btype
1 7 8 1 
2 8 9 1 
3 20 21 1 
4 16 17 1 
5 16 29 2 
6 16 19 2 
7 18 28 2 
8 18 20 2 
9 28 29 1 
10 21 29 2 
11 29 30 1 
12 19 20 1 
13 22 23 1 
14 23 24 1 
15 17 18 1 
16 11 12 1 
17 10 11 1 
18 5 6 1 
19 4 5 1 
20 26 27 1 
21 25 26 1 
22 1 2 1 
23 2 3 1 
24 14 15 1 
25 13 14 1 
ITEM: TIMESTEP
43500
ITEM: NUMBER OF ENTRIES
25
ITEM: BOX BOUNDS pp pp pp
-1.0000000000000000e+01 1.0000000000000000e+01
-1.0000000000000000e+01 1.0000000000000000e+01
-1.0000000000000000e+01 1.0000000000000000e+01
ITEM: ENTRIES index c_bondedatomid1 c_bondedatomid2 c_btype
1 7 8 1 
2 8 9 1 
3 20 21 1 
4 16 17 1 
5 16 29 2 
6 16 19 2 
7 18 28 2 
8 18 20 2 
9 28 29 1 
10 21 29 2 
11 29 30 1 
12 19 20 1 
13 22 23 1 
14 23 24 1 
15 17 18 1 
16 11 12 1 
17 10 11 1 
18 5 6 1 
19 4 5 1 
20 26 27 1 
21 25 26 1 
22 1 2 1 
23 2 3 1 
24 14 15 1 
25 13 14 1 
ITEM: TIMESTEP
43600
ITEM: NUMBER OF ENTRIES
25
ITEM: BOX BOUNDS pp pp pp
-1.0000000000000000e+01 1.0000000000000000e+01
-1.0000000000000000e+01 1.0000000000000000e+01
-1.0000000000000000e+01 1.0000000000000000e+01
ITEM: ENTRIES index c_bondedatomid1 c_bondedatomid2 c_btype
1 7 8 1 
2 8 9 1 
3 20 21 1 
4 16 17 1 
5 16 29 2 
6 16 19 2 
7 18 28 2 
8 18 20 2 
9 28 29 1 
10 21 29 2 
11 29 30 1 
12 19 20 1 
13 22 23 1 
14 23 24 1 
15 17 18 1 
16 11 12 1 
17 10 11 1 
18 5 6 1 
19 4 5 1 
20 26 27 1 
21 25 26 1 
22 1 2 1 
23 2 3 1 
24 14 15 1 
25 13 14 1 
ITEM: TIMESTEP
43700
ITEM: NUMBER OF ENTRIES
25
ITEM: BOX BOUNDS pp pp pp
-1.0000000000000000e+01 1.0000000000000000e+01
-1.0000000000000000e+01 1.0000000000000000e+01
-1.0000000000000000e+01 1.0000000000000000e+01
ITEM: ENTRIES index c_bondedatomid1 c_bondedatomid2 c_btype
1 7 8 1 
2 8 9 1 
3 20 21 1 
4 16 17 1 
5 16 29 2 
6 16 19 2 
7 18 28 2 
8 18 20 2 
9 28 29 1 
10 21 29 2 
11 29 30 1 
12 19 20 1 
13 22 23 1 
14 23 24 1 
15 17 18 1 
16 11 12 1 
17 10 11 1 
18 5 6 1 
19 4 5 1 
20 26 27 1 
21 25 26 1 
22 1 2 1 
23 2 3 1 
24 14 15 1 
25 13 14 1 
ITEM: TIMESTEP
43800
ITEM: NUMBER OF ENTRIES
25
ITEM: BOX BOUNDS pp pp pp
-1.0000000000000000e+01 1.0000000000000000e+01
-1.0000000000000000e+01 1.0000000000000000e+01
-1.0000000000000000e+01 1.0000000000000000e+01
ITEM: ENTRIES index c_bondedatomid1 c_bondedatomid2 c_btype
1 7 8 1 
2 8 9 1 
3 20 21 1 
4 16 17 1 
5 16 29 2 
6 16 19 2 
7 18 28 2 
8 18 20 2 
9 28 29 1 
10 21 29 2 
11 29 30 1 
12 19 20 1 
13 22 23 1 
14 23 24 1 
15 17 18 1 
16 11 12 1 
17 10 11 1 
18 5 6 1 
19 4 5 1 
20 26 27 1 
21 25 26 1 
22 1 2 1 
23 2 3 1 
24 14 15 1 
25 13 14 1 
ITEM: TIMESTEP
43900
ITEM: NUMBER OF ENTRIES
25
ITEM: BOX BOUNDS pp pp pp
-1.0000000000000000e+01 1.0000000000000000e+01
-1.0000000000000000e+01 1.0000000000000000e+01
-1.0000000000000000e+01 1.0000000000000000e+01
ITEM: ENTRIES index c_bondedatomid1 c_bondedatomid2 c_btype
1 7 8 1 
2 8 9 1 
3 20 21 1 
4 16 17 1 
5 16 29 2 
6 16 19 2 
7 18 28 2 
8 18 20 2 
9 28 29 1 
10 21 29 2 
11 29 30 1 
12 19 20 1 
13 22 23 1 
14 23 24 1 
15 17 18 1 
16 11 12 1 
17 10 11 1 
18 5 6 1 
19 4 5 1 
20 26 27 1 
21 25 26 1 
22 1 2 1 
23 2 3 1 
24 14 15 1 
25 13 14 1 
ITEM: TIMESTEP
44000
ITEM: NUMBER OF ENTRIES
25
ITEM: BOX BOUNDS pp pp pp
-1.0000000000000000e+01 1.0000000000000000e+01
-1.0000000000000000e+01 1.0000000000000000e+01
-1.0000000000000000e+01 1.0000000000000000e+01
ITEM: ENTRIES index c_bondedatomid1 c_bondedatomid2 c_btype
1 7 8 1 
2 8 9 1 
3 20 21 1 
4 16 17 1 
5 16 29 2 
6 16 19 2 
7 18 28 2 
8 18 20 2 
9 28 29 1 
10 21 29 2 
11 29 30 1 
12 19 20 1 
13 22 23 1 
14 23 24 1 
15 17 18 1 
16 11 12 1 
17 10 11 1 
18 5 6 1 
19 4 5 1 
20 26 27 1 
21 25 26 1 
22 1 2 1 
23 2 3 1 
24 14 15 1 
25 13 14 1 
ITEM: TIMESTEP
44100
ITEM: NUMBER OF ENTRIES
25
ITEM: BOX BOUNDS pp pp pp
-1.0000000000000000e+01 1.0000000000000000e+01
-1.0000000000000000e+01 1.0000000000000000e+01
-1.0000000000000000e+01 1.0000000000000000e+01
ITEM: ENTRIES index c_bondedatomid1 c_bondedatomid2 c_btype
1 7 8 1 
2 8 9 1 
3 20 21 1 
4 16 17 1 
5 16 29 2 
6 16 19 2 
7 18 28 2 
8 18 20 2 
9 28 29 1 
10 21 29 2 
11 29 30 1 
12 19 20 1 
13 17 18 1 
14 22 23 1 
15 23 24 1 
16 11 12 1 
17 10 11 1 
18 5 6 1 
19 4 5 1 
20 26 27 1 
21 25 26 1 
22 14 15 1 
23 1 2 1 
24 2 3 1 
25 13 14 1 
ITEM: TIMESTEP
44200
ITEM: NUMBER OF ENTRIES
25
ITEM: BOX BOUNDS pp pp pp
-1.0000000000000000e+01 1.0000000000000000e+01
-1.0000000000000000e+01 1.0000000000000000e+01
-1.0000000000000000e+01 1.0000000000000000e+01
ITEM: ENTRIES index c_bondedatomid1 c_bondedatomid2 c_btype
1 7 8 1 
2 8 9 1 
3 20 21 1 
4 16 17 1 
5 16 29 2 
6 16 19 2 
7 18 28 2 
8 18 20 2 
9 28 29 1 
10 21 29 2 
11 29 30 1 
12 19 20 1 
13 17 18 1 
14 22 23 1 
15 23 24 1 
16 11 12 1 
17 10 11 1 
18 5 6 1 
19 4 5 1 
20 26 27 1 
21 25 26 1 
22 14 15 1 
23 1 2 1 
24 2 3 1 
25 13 14 1 
ITEM: TIMESTEP
44300
ITEM: NUMBER OF ENTRIES
26
ITEM: BOX BOUNDS pp pp pp
-1.0000000000000000e+01 1.0000000000000000e+01
-1.0000000000000000e+01 1.0000000000000000e+01
-1.0000000000000000e+01 1.0000000000000000e+01
ITEM: ENTRIES index c_bondedatomid1 c_bondedatomid2 c_btype
1 7 8 1 
2 8 9 1 
3 20 21 1 
4 16 17 1 
5 16 29 2 
6 16 19 2 
7 18 28 2 
8 18 20 2 
9 28 29 1 
10 21 29 2 
11 29 30 1 
12 19 20 1 
13 17 18 1 
14 22 23 1 
15 23 24 1 
16 11 12 1 
17 10 11 1 
18 5 6 1 
19 4 5 1 
20 26 27 1 
21 25 26 1 
22 14 15 1 
23 1 2 1 
24 1 15 2 
25 2 3 1 
26 13 14 1 
ITEM: TIMESTEP
44400
ITEM: NUMBER OF ENTRIES
26
ITEM: BOX BOUNDS pp pp pp
-1.0000000000000000e+01 1.0000000000000000e+01
-1.0000000000000000e+01 1.0000000000000000e+01
-1.0000000000000000e+01 1.0000000000000000e+01
ITEM: ENTRIES index c_bondedatomid1 c_bondedatomid2 c_btype
1 7 8 1 
2 8 9 1 
3 20 21 1 
4 16 17 1 
5 16 29 2 
6 16 19 2 
7 18 28 2 
8 18 20 2 
9 28 29 1 
10 21 29 2 
11 29 30 1 
12 19 20 1 
13 17 18 1 
14 22 23 1 
15 23 24 1 
16 11 12 1 
17 10 11 1 
18 5 6 1 
19 4 5 1 
20 26 27 1 
21 25 26 1 
22 14 15 1 
23 1 2 1 
24 1 15 2 
25 2 3 1 
26 13 14 1 
ITEM: TIMESTEP
44500
ITEM: NUMBER OF ENTRIES
26
ITEM: BOX BOUNDS pp pp pp
-1.0000000000000000e+01 1.0000000000000000e+01
-1.0000000000000000e+01 1.0000000000000000e+01
-1.0000000000000000e+01 1.0000000000000000e+01
ITEM: ENTRIES index c_bondedatomid1 c_bondedatomid2 c_btype
1 7 8 1 
2 8 9 1 
3 20 21 1 
4 16 17 1 
5 16 29 2 
6 16 19 2 
7 18 28 2 
8 18 20 2 
9 28 29 1 
10 21 29 2 
11 29 30 1 
12 19 20 1 
13 17 18 1 
14 22 23 1 
15 23 24 1 
16 11 12 1 
17 10 11 1 
18 5 6 1 
19 4 5 1 
20 26 27 1 
21 25 26 1 
22 14 15 1 
23 1 2 1 
24 1 15 2 
25 2 3 1 
26 13 14 1 
ITEM: TIMESTEP
44600
ITEM: NUMBER OF ENTRIES
26
ITEM: BOX BOUNDS pp pp pp
-1.0000000000000000e+01 1.0000000000000000e+01
-1.0000000000000000e+01 1.0000000000000000e+01
-1.0000000000000000e+01 1.0000000000000000e+01
ITEM: ENTRIES index c_bondedatomid1 c_bondedatomid2 c_btype
1 7 8 1 
2 8 9 1 
3 20 21 1 
4 16 17 1 
5 16 29 2 
6 16 19 2 
7 18 28 2 
8 18 20 2 
9 28 29 1 
10 21 29 2 
11 29 30 1 
12 19 20 1 
13 17 18 1 
14 22 23 1 
15 23 24 1 
16 11 12 1 
17 10 11 1 
18 5 6 1 
19 4 5 1 
20 26 27 1 
21 25 26 1 
22 14 15 1 
23 1 2 1 
24 1 15 2 
25 2 3 1 
26 13 14 1 
ITEM: TIMESTEP
44700
ITEM: NUMBER OF ENTRIES
26
ITEM: BOX BOUNDS pp pp pp
-1.0000000000000000e+01 1.0000000000000000e+01
-1.0000000000000000e+01 1.0000000000000000e+01
-1.0000000000000000e+01 1.0000000000000000e+01
ITEM: ENTRIES index c_bondedatomid1 c_bondedatomid2 c_btype
1 7 8 1 
2 8 9 1 
3 20 21 1 
4 16 17 1 
5 16 29 2 
6 16 19 2 
7 18 28 2 
8 18 20 2 
9 28 29 1 
10 21 29 2 
11 29 30 1 
12 19 20 1 
13 17 18 1 
14 22 23 1 
15 23 24 1 
16 11 12 1 
17 10 11 1 
18 5 6 1 
19 4 5 1 
20 26 27 1 
21 25 26 1 
22 14 15 1 
23 1 2 1 
24 1 15 2 
25 2 3 1 
26 13 14 1 
ITEM: TIMESTEP
44800
ITEM: NUMBER OF ENTRIES
26
ITEM: BOX BOUNDS pp pp pp
-1.0000000000000000e+01 1.0000000000000000e+01
-1.0000000000000000e+01 1.0000000000000000e+01
-1.0000000000000000e+01 1.0000000000000000e+01
ITEM: ENTRIES index c_bondedatomid1 c_bondedatomid2 c_btype
1 7 8 1 
2 8 9 1 
3 20 21 1 
4 16 17 1 
5 16 29 2 
6 16 19 2 
7 18 28 2 
8 18 20 2 
9 28 29 1 
10 21 29 2 
11 29 30 1 
12 19 20 1 
13 17 18 1 
14 22 23 1 
15 23 24 1 
16 11 12 1 
17 10 11 1 
18 5 6 1 
19 4 5 1 
20 26 27 1 
21 25 26 1 
22 14 15 1 
23 1 2 1 
24 1 15 2 
25 2 3 1 
26 13 14 1 
ITEM: TIMESTEP
44900
ITEM: NUMBER OF ENTRIES
27
ITEM: BOX BOUNDS pp pp pp
-1.0000000000000000e+01 1.0000000000000000e+01
-1.0000000000000000e+01 1.0000000000000000e+01
-1.0000000000000000e+01 1.0000000000000000e+01
ITEM: ENTRIES index c_bondedatomid1 c_bondedatomid2 c_btype
1 7 8 1 
2 8 9 1 
3 20 21 1 
4 16 17 1 
5 16 29 2 
6 16 19 2 
7 18 28 2 
8 18 20 2 
9 28 29 1 
10 21 29 2 
11 29 30 1 
12 19 20 1 
13 17 18 1 
14 22 23 1 
15 23 24 1 
16 11 12 1 
17 10 11 1 
18 5 6 1 
19 4 5 1 
20 26 27 1 
21 25 26 1 
22 14 15 1 
23 1 2 1 
24 1 15 2 
25 2 3 1 
26 2 13 2 
27 13 14 1 
ITEM: TIMESTEP
45000
ITEM: NUMBER OF ENTRIES
27
ITEM: BOX BOUNDS pp pp pp
-1.0000000000000000e+01 1.0000000000000000e+01
-1.0000000000000000e+01 1.0000000000000000e+01
-1.0000000000000000e+01 1.0000000000000000e+01
ITEM: ENTRIES index c_bondedatomid1 c_bondedatomid2 c_btype
1 7 8 1 
2 8 9 1 
3 20 21 1 
4 16 17 1 
5 16 29 2 
6 16 19 2 
7 18 28 2 
8 18 20 2 
9 28 29 1 
10 21 29 2 
11 29 30 1 
12 19 20 1 
13 17 18 1 
14 22 23 1 
15 23 24 1 
16 11 12 1 
17 10 11 1 
18 5 6 1 
19 4 5 1 
20 26 27 1 
21 25 26 1 
22 14 15 1 
23 1 2 1 
24 1 15 2 
25 2 3 1 
26 2 13 2 
27 13 14 1 
ITEM: TIMESTEP
45100
ITEM: NUMBER OF ENTRIES
27
ITEM: BOX BOUNDS pp pp pp
-1.0000000000000000e+01 1.0000000000000000e+01
-1.0000000000000000e+01 1.0000000000000000e+01
-1.0000000000000000e+01 1.0000000000000000e+01
ITEM: ENTRIES index c_bondedatomid1 c_bondedatomid2 c_btype
1 20 21 1 
2 16 17 1 
3 16 29 2 
4 16 19 2 
5 18 28 2 
6 18 20 2 
7 28 29 1 
8 21 29 2 
9 29 30 1 
10 19 20 1 
11 17 18 1 
12 23 24 1 
13 11 12 1 
14 22 23 1 
15 7 8 1 
16 8 9 1 
17 10 11 1 
18 5 6 1 
19 4 5 1 
20 26 27 1 
21 25 26 1 
22 1 2 1 
23 1 15 2 
24 14 15 1 
25 2 3 1 
26 2 13 2 
27 13 14 1 
ITEM: TIMESTEP
45200
ITEM: NUMBER OF ENTRIES
27
ITEM: BOX BOUNDS pp pp pp
-1.0000000000000000e+01 1.0000000000000000e+01
-1.0000000000000000e+01 1.0000000000000000e+01
-1.0000000000000000e+01 1.0000000000000000e+01
ITEM: ENTRIES index c_bondedatomid1 c_bondedatomid2 c_btype
1 20 21 1 
2 16 17 1 
3 16 29 2 
4 16 19 2 
5 18 28 2 
6 18 20 2 
7 28 29 1 
8 21 29 2 
9 29 30 1 
10 19 20 1 
11 17 18 1 
12 23 24 1 
13 11 12 1 
14 22 23 1 
15 7 8 1 
16 8 9 1 
17 10 11 1 
18 5 6 1 
19 4 5 1 
20 26 27 1 
21 25 26 1 
22 1 2 1 
23 1 15 2 
24 14 15 1 
25 2 3 1 
26 2 13 2 
27 13 14 1 
ITEM: TIMESTEP
45300
ITEM: NUMBER OF ENTRIES
27
ITEM: BOX BOUNDS pp pp pp
-1.0000000000000000e+01 1.0000000000000000e+01
-1.0000000000000000e+01 1.0000000000000000e+01
-1.0000000000000000e+01 1.0000000000000000e+01
ITEM: ENTRIES index c_bondedatomid1 c_bondedatomid2 c_btype
1 20 21 1 
2 16 17 1 
3 16 29 2 
4 16 19 2 
5 18 28 2 
6 18 20 2 
7 28 29 1 
8 21 29 2 
9 29 30 1 
10 19 20 1 
11 17 18 1 
12 23 24 1 
13 11 12 1 
14 22 23 1 
15 7 8 1 
16 8 9 1 
17 10 11 1 
18 5 6 1 
19 4 5 1 
20 26 27 1 
21 25 26 1 
22 1 2 1 
23 1 15 2 
24 14 15 1 
25 2 3 1 
26 2 13 2 
27 13 14 1 
ITEM: TIMESTEP
45400
ITEM: NUMBER OF ENTRIES
27
ITEM: BOX BOUNDS pp pp pp
-1.0000000000000000e+01 1.0000000000000000e+01
-1.0000000000000000e+01 1.0000000000000000e+01
-1.0000000000000000e+01 1.0000000000000000e+01
ITEM: ENTRIES index c_bondedatomid1 c_bondedatomid2 c_btype
1 20 21 1 
2 16 17 1 
3 16 29 2 
4 16 19 2 
5 18 28 2 
6 18 20 2 
7 28 29 1 
8 21 29 2 
9 29 30 1 
10 19 20 1 
11 17 18 1 
12 23 24 1 
13 11 12 1 
14 22 23 1 
15 7 8 1 
16 8 9 1 
17 10 11 1 
18 5 6 1 
19 4 5 1 
20 26 27 1 
21 25 26 1 
22 1 2 1 
23 1 15 2 
24 14 15 1 
25 2 3 1 
26 2 13 2 
27 13 14 1 
ITEM: TIMESTEP
45500
ITEM: NUMBER OF ENTRIES
27
ITEM: BOX BOUNDS pp pp pp
-1.0000000000000000e+01 1.0000000000000000e+01
-1.0000000000000000e+01 1.0000000000000000e+01
-1.0000000000000000e+01 1.0000000000000000e+01
ITEM: ENTRIES index c_bondedatomid1 c_bondedatomid2 c_btype
1 20 21 1 
2 16 17 1 
3 16 29 2 
4 16 19 2 
5 18 28 2 
6 18 20 2 
7 28 29 1 
8 21 29 2 
9 29 30 1 
10 19 20 1 
11 17 18 1 
12 23 24 1 
13 11 12 1 
14 22 23 1 
15 7 8 1 
16 8 9 1 
17 10 11 1 
18 5 6 1 
19 4 5 1 
20 26 27 1 
21 25 26 1 
22 1 2 1 
23 1 15 2 
24 14 15 1 
25 2 3 1 
26 2 13 2 
27 13 14 1 
ITEM: TIMESTEP
45600
ITEM: NUMBER OF ENTRIES
27
ITEM: BOX BOUNDS pp pp pp
-1.0000000000000000e+01 1.0000000000000000e+01
-1.0000000000000000e+01 1.0000000000000000e+01
-1.0000000000000000e+01 1.0000000000000000e+01
ITEM: ENTRIES index c_bondedatomid1 c_bondedatomid2 c_btype
1 20 21 1 
2 16 17 1 
3 16 29 2 
4 16 19 2 
5 18 28 2 
6 18 20 2 
7 28 29 1 
8 21 29 2 
9 29 30 1 
10 19 20 1 
11 17 18 1 
12 23 24 1 
13 11 12 1 
14 22 23 1 
15 7 8 1 
16 8 9 1 
17 10 11 1 
18 5 6 1 
19 4 5 1 
20 26 27 1 
21 25 26 1 
22 1 2 1 
23 1 15 2 
24 14 15 1 
25 2 3 1 
26 2 13 2 
27 13 14 1 
ITEM: TIMESTEP
45700
ITEM: NUMBER OF ENTRIES
27
ITEM: BOX BOUNDS pp pp pp
-1.0000000000000000e+01 1.0000000000000000e+01
-1.0000000000000000e+01 1.0000000000000000e+01
-1.0000000000000000e+01 1.0000000000000000e+01
ITEM: ENTRIES index c_bondedatomid1 c_bondedatomid2 c_btype
1 20 21 1 
2 16 17 1 
3 16 29 2 
4 16 19 2 
5 18 28 2 
6 18 20 2 
7 28 29 1 
8 21 29 2 
9 29 30 1 
10 19 20 1 
11 17 18 1 
12 23 24 1 
13 11 12 1 
14 22 23 1 
15 7 8 1 
16 8 9 1 
17 10 11 1 
18 5 6 1 
19 4 5 1 
20 26 27 1 
21 25 26 1 
22 1 2 1 
23 1 15 2 
24 14 15 1 
25 2 3 1 
26 2 13 2 
27 13 14 1 
ITEM: TIMESTEP
45800
ITEM: NUMBER OF ENTRIES
27
ITEM: BOX BOUNDS pp pp pp
-1.0000000000000000e+01 1.0000000000000000e+01
-1.0000000000000000e+01 1.0000000000000000e+01
-1.0000000000000000e+01 1.0000000000000000e+01
ITEM: ENTRIES index c_bondedatomid1 c_bondedatomid2 c_btype
1 20 21 1 
2 16 17 1 
3 16 29 2 
4 16 19 2 
5 18 28 2 
6 18 20 2 
7 28 29 1 
8 21 29 2 
9 29 30 1 
10 19 20 1 
11 17 18 1 
12 23 24 1 
13 11 12 1 
14 22 23 1 
15 7 8 1 
16 8 9 1 
17 10 11 1 
18 5 6 1 
19 4 5 1 
20 26 27 1 
21 25 26 1 
22 1 2 1 
23 1 15 2 
24 14 15 1 
25 2 3 1 
26 2 13 2 
27 13 14 1 
ITEM: TIMESTEP
45900
ITEM: NUMBER OF ENTRIES
27
ITEM: BOX BOUNDS pp pp pp
-1.0000000000000000e+01 1.0000000000000000e+01
-1.0000000000000000e+01 1.0000000000000000e+01
-1.0000000000000000e+01 1.0000000000000000e+01
ITEM: ENTRIES index c_bondedatomid1 c_bondedatomid2 c_btype
1 20 21 1 
2 16 17 1 
3 16 29 2 
4 16 19 2 
5 18 28 2 
6 18 20 2 
7 28 29 1 
8 21 29 2 
9 29 30 1 
10 19 20 1 
11 17 18 1 
12 23 24 1 
13 11 12 1 
14 22 23 1 
15 7 8 1 
16 8 9 1 
17 10 11 1 
18 5 6 1 
19 4 5 1 
20 26 27 1 
21 25 26 1 
22 1 2 1 
23 1 15 2 
24 14 15 1 
25 2 3 1 
26 2 13 2 
27 13 14 1 
ITEM: TIMESTEP
46000
ITEM: NUMBER OF ENTRIES
27
ITEM: BOX BOUNDS pp pp pp
-1.0000000000000000e+01 1.0000000000000000e+01
-1.0000000000000000e+01 1.0000000000000000e+01
-1.0000000000000000e+01 1.0000000000000000e+01
ITEM: ENTRIES index c_bondedatomid1 c_bondedatomid2 c_btype
1 20 21 1 
2 16 17 1 
3 16 29 2 
4 16 19 2 
5 18 28 2 
6 18 20 2 
7 28 29 1 
8 21 29 2 
9 29 30 1 
10 19 20 1 
11 17 18 1 
12 23 24 1 
13 11 12 1 
14 22 23 1 
15 7 8 1 
16 8 9 1 
17 10 11 1 
18 5 6 1 
19 4 5 1 
20 26 27 1 
21 25 26 1 
22 1 2 1 
23 1 15 2 
24 14 15 1 
25 2 3 1 
26 2 13 2 
27 13 14 1 
ITEM: TIMESTEP
46100
ITEM: NUMBER OF ENTRIES
27
ITEM: BOX BOUNDS pp pp pp
-1.0000000000000000e+01 1.0000000000000000e+01
-1.0000000000000000e+01 1.0000000000000000e+01
-1.0000000000000000e+01 1.0000000000000000e+01
ITEM: ENTRIES index c_bondedatomid1 c_bondedatomid2 c_btype
1 18 28 2 
2 18 20 2 
3 28 29 1 
4 21 29 2 
5 20 21 1 
6 16 17 1 
7 16 29 2 
8 16 19 2 
9 29 30 1 
10 19 20 1 
11 17 18 1 
12 23 24 1 
13 22 23 1 
14 7 8 1 
15 8 9 1 
16 10 11 1 
17 11 12 1 
18 5 6 1 
19 4 5 1 
20 26 27 1 
21 25 26 1 
22 2 3 1 
23 2 13 2 
24 14 15 1 
25 13 14 1 
26 1 2 1 
27 1 15 2 
ITEM: TIMESTEP
46200
ITEM: NUMBER OF ENTRIES
27
ITEM: BOX BOUNDS pp pp pp
-1.0000000000000000e+01 1.0000000000000000e+01
-1.0000000000000000e+01 1.0000000000000000e+01
-1.0000000000000000e+01 1.0000000000000000e+01
ITEM: ENTRIES index c_bondedatomid1 c_bondedatomid2 c_btype
1 18 28 2 
2 18 20 2 
3 28 29 1 
4 21 29 2 
5 20 21 1 
6 16 17 1 
7 16 29 2 
8 16 19 2 
9 29 30 1 
10 19 20 1 
11 17 18 1 
12 23 24 1 
13 22 23 1 
14 7 8 1 
15 8 9 1 
16 10 11 1 
17 11 12 1 
18 5 6 1 
19 4 5 1 
20 26 27 1 
21 25 26 1 
22 2 3 1 
23 2 13 2 
24 14 15 1 
25 13 14 1 
26 1 2 1 
27 1 15 2 
ITEM: TIMESTEP
46300
ITEM: NUMBER OF ENTRIES
27
ITEM: BOX BOUNDS pp pp pp
-1.0000000000000000e+01 1.0000000000000000e+01
-1.0000000000000000e+01 1.0000000000000000e+01
-1.0000000000000000e+01 1.0000000000000000e+01
ITEM: ENTRIES index c_bondedatomid1 c_bondedatomid2 c_btype
1 18 28 2 
2 18 20 2 
3 28 29 1 
4 21 29 2 
5 20 21 1 
6 16 17 1 
7 16 29 2 
8 16 19 2 
9 29 30 1 
10 19 20 1 
11 17 18 1 
12 23 24 1 
13 22 23 1 
14 7 8 1 
15 8 9 1 
16 10 11 1 
17 11 12 1 
18 5 6 1 
19 4 5 1 
20 26 27 1 
21 25 26 1 
22 2 3 1 
23 2 13 2 
24 14 15 1 
25 13 14 1 
26 1 2 1 
27 1 15 2 
ITEM: TIMESTEP
46400
ITEM: NUMBER OF ENTRIES
27
ITEM: BOX BOUNDS pp pp pp
-1.0000000000000000e+01 1.0000000000000000e+01
-1.0000000000000000e+01 1.0000000000000000e+01
-1.0000000000000000e+01 1.0000000000000000e+01
ITEM: ENTRIES index c_bondedatomid1 c_bondedatomid2 c_btype
1 18 28 2 
2 18 20 2 
3 28 29 1 
4 21 29 2 
5 20 21 1 
6 16 17 1 
7 16 29 2 
8 16 19 2 
9 29 30 1 
10 19 20 1 
11 17 18 1 
12 23 24 1 
13 22 23 1 
14 7 8 1 
15 8 9 1 
16 10 11 1 
17 11 12 1 
18 5 6 1 
19 4 5 1 
20 26 27 1 
21 25 26 1 
22 2 3 1 
23 2 13 2 
24 14 15 1 
25 13 14 1 
26 1 2 1 
27 1 15 2 
ITEM: TIMESTEP
46500
ITEM: NUMBER OF ENTRIES
27
ITEM: BOX BOUNDS pp pp pp
-1.0000000000000000e+01 1.0000000000000000e+01
-1.0000000000000000e+01 1.0000000000000000e+01
-1.0000000000000000e+01 1.0000000000000000e+01
ITEM: ENTRIES index c_bondedatomid1 c_bondedatomid2 c_btype
1 18 28 2 
2 18 20 2 
3 28 29 1 
4 21 29 2 
5 20 21 1 
6 16 17 1 
7 16 29 2 
8 16 19 2 
9 29 30 1 
10 19 20 1 
11 17 18 1 
12 23 24 1 
13 22 23 1 
14 7 8 1 
15 8 9 1 
16 10 11 1 
17 11 12 1 
18 5 6 1 
19 4 5 1 
20 26 27 1 
21 25 26 1 
22 2 3 1 
23 2 13 2 
24 14 15 1 
25 13 14 1 
26 1 2 1 
27 1 15 2 
ITEM: TIMESTEP
46600
ITEM: NUMBER OF ENTRIES
27
ITEM: BOX BOUNDS pp pp pp
-1.0000000000000000e+01 1.0000000000000000e+01
-1.0000000000000000e+01 1.0000000000000000e+01
-1.0000000000000000e+01 1.0000000000000000e+01
ITEM: ENTRIES index c_bondedatomid1 c_bondedatomid2 c_btype
1 18 28 2 
2 18 20 2 
3 28 29 1 
4 21 29 2 
5 20 21 1 
6 16 17 1 
7 16 29 2 
8 16 19 2 
9 29 30 1 
10 19 20 1 
11 17 18 1 
12 23 24 1 
13 22 23 1 
14 7 8 1 
15 8 9 1 
16 10 11 1 
17 11 12 1 
18 5 6 1 
19 4 5 1 
20 26 27 1 
21 25 26 1 
22 2 3 1 
23 2 13 2 
24 14 15 1 
25 13 14 1 
26 1 2 1 
27 1 15 2 
ITEM: TIMESTEP
46700
ITEM: NUMBER OF ENTRIES
27
ITEM: BOX BOUNDS pp pp pp
-1.0000000000000000e+01 1.0000000000000000e+01
-1.0000000000000000e+01 1.0000000000000000e+01
-1.0000000000000000e+01 1.0000000000000000e+01
ITEM: ENTRIES index c_bondedatomid1 c_bondedatomid2 c_btype
1 18 28 2 
2 18 20 2 
3 28 29 1 
4 21 29 2 
5 20 21 1 
6 16 17 1 
7 16 29 2 
8 16 19 2 
9 29 30 1 
10 19 20 1 
11 17 18 1 
12 23 24 1 
13 22 23 1 
14 7 8 1 
15 8 9 1 
16 10 11 1 
17 11 12 1 
18 5 6 1 
19 4 5 1 
20 26 27 1 
21 25 26 1 
22 2 3 1 
23 2 13 2 
24 14 15 1 
25 13 14 1 
26 1 2 1 
27 1 15 2 
ITEM: TIMESTEP
46800
ITEM: NUMBER OF ENTRIES
27
ITEM: BOX BOUNDS pp pp pp
-1.0000000000000000e+01 1.0000000000000000e+01
-1.0000000000000000e+01 1.0000000000000000e+01
-1.0000000000000000e+01 1.0000000000000000e+01
ITEM: ENTRIES index c_bondedatomid1 c_bondedatomid2 c_btype
1 18 28 2 
2 18 20 2 
3 28 29 1 
4 21 29 2 
5 20 21 1 
6 16 17 1 
7 16 29 2 
8 16 19 2 
9 29 30 1 
10 19 20 1 
11 17 18 1 
12 23 24 1 
13 22 23 1 
14 7 8 1 
15 8 9 1 
16 10 11 1 
17 11 12 1 
18 5 6 1 
19 4 5 1 
20 26 27 1 
21 25 26 1 
22 2 3 1 
23 2 13 2 
24 14 15 1 
25 13 14 1 
26 1 2 1 
27 1 15 2 
ITEM: TIMESTEP
46900
ITEM: NUMBER OF ENTRIES
27
ITEM: BOX BOUNDS pp pp pp
-1.0000000000000000e+01 1.0000000000000000e+01
-1.0000000000000000e+01 1.0000000000000000e+01
-1.0000000000000000e+01 1.0000000000000000e+01
ITEM: ENTRIES index c_bondedatomid1 c_bondedatomid2 c_btype
1 18 28 2 
2 18 20 2 
3 28 29 1 
4 21 29 2 
5 20 21 1 
6 16 17 1 
7 16 29 2 
8 16 19 2 
9 29 30 1 
10 19 20 1 
11 17 18 1 
12 23 24 1 
13 22 23 1 
14 7 8 1 
15 8 9 1 
16 10 11 1 
17 11 12 1 
18 5 6 1 
19 4 5 1 
20 26 27 1 
21 25 26 1 
22 2 3 1 
23 2 13 2 
24 14 15 1 
25 13 14 1 
26 1 2 1 
27 1 15 2 
ITEM: TIMESTEP
47000
ITEM: NUMBER OF ENTRIES
27
ITEM: BOX BOUNDS pp pp pp
-1.0000000000000000e+01 1.0000000000000000e+01
-1.0000000000000000e+01 1.0000000000000000e+01
-1.0000000000000000e+01 1.0000000000000000e+01
ITEM: ENTRIES index c_bondedatomid1 c_bondedatomid2 c_btype
1 18 28 2 
2 18 20 2 
3 28 29 1 
4 21 29 2 
5 20 21 1 
6 16 17 1 
7 16 29 2 
8 16 19 2 
9 29 30 1 
10 19 20 1 
11 17 18 1 
12 23 24 1 
13 22 23 1 
14 7 8 1 
15 8 9 1 
16 10 11 1 
17 11 12 1 
18 5 6 1 
19 4 5 1 
20 26 27 1 
21 25 26 1 
22 2 3 1 
23 2 13 2 
24 14 15 1 
25 13 14 1 
26 1 2 1 
27 1 15 2 
ITEM: TIMESTEP
47100
ITEM: NUMBER OF ENTRIES
27
ITEM: BOX BOUNDS pp pp pp
-1.0000000000000000e+01 1.0000000000000000e+01
-1.0000000000000000e+01 1.0000000000000000e+01
-1.0000000000000000e+01 1.0000000000000000e+01
ITEM: ENTRIES index c_bondedatomid1 c_bondedatomid2 c_btype
1 20 21 1 
2 19 20 1 
3 10 11 1 
4 18 28 2 
5 18 20 2 
6 28 29 1 
7 21 29 2 
8 16 17 1 
9 16 29 2 
10 16 19 2 
11 29 30 1 
12 17 18 1 
13 7 8 1 
14 8 9 1 
15 23 24 1 
16 22 23 1 
17 11 12 1 
18 5 6 1 
19 4 5 1 
20 26 27 1 
21 25 26 1 
22 2 3 1 
23 2 13 2 
24 13 14 1 
25 1 2 1 
26 1 15 2 
27 14 15 1 
ITEM: TIMESTEP
47200
ITEM: NUMBER OF ENTRIES
27
ITEM: BOX BOUNDS pp pp pp
-1.0000000000000000e+01 1.0000000000000000e+01
-1.0000000000000000e+01 1.0000000000000000e+01
-1.0000000000000000e+01 1.0000000000000000e+01
ITEM: ENTRIES index c_bondedatomid1 c_bondedatomid2 c_btype
1 20 21 1 
2 19 20 1 
3 10 11 1 
4 18 28 2 
5 18 20 2 
6 28 29 1 
7 21 29 2 
8 16 17 1 
9 16 29 2 
10 16 19 2 
11 29 30 1 
12 17 18 1 
13 7 8 1 
14 8 9 1 
15 23 24 1 
16 22 23 1 
17 11 12 1 
18 5 6 1 
19 4 5 1 
20 26 27 1 
21 25 26 1 
22 2 3 1 
23 2 13 2 
24 13 14 1 
25 1 2 1 
26 1 15 2 
27 14 15 1 
ITEM: TIMESTEP
47300
ITEM: NUMBER OF ENTRIES
27
ITEM: BOX BOUNDS pp pp pp
-1.0000000000000000e+01 1.0000000000000000e+01
-1.0000000000000000e+01 1.0000000000000000e+01
-1.0000000000000000e+01 1.0000000000000000e+01
ITEM: ENTRIES index c_bondedatomid1 c_bondedatomid2 c_btype
1 20 21 1 
2 19 20 1 
3 10 11 1 
4 18 28 2 
5 18 20 2 
6 28 29 1 
7 21 29 2 
8 16 17 1 
9 16 29 2 
10 16 19 2 
11 29 30 1 
12 17 18 1 
13 7 8 1 
14 8 9 1 
15 23 24 1 
16 22 23 1 
17 11 12 1 
18 5 6 1 
19 4 5 1 
20 26 27 1 
21 25 26 1 
22 2 3 1 
23 2 13 2 
24 13 14 1 
25 1 2 1 
26 1 15 2 
27 14 15 1 
ITEM: TIMESTEP
47400
ITEM: NUMBER OF ENTRIES
27
ITEM: BOX BOUNDS pp pp pp
-1.0000000000000000e+01 1.0000000000000000e+01
-1.0000000000000000e+01 1.0000000000000000e+01
-1.0000000000000000e+01 1.0000000000000000e+01
ITEM: ENTRIES index c_bondedatomid1 c_bondedatomid2 c_btype
1 20 21 1 
2 19 20 1 
3 10 11 1 
4 18 28 2 
5 18 20 2 
6 28 29 1 
7 21 29 2 
8 16 17 1 
9 16 29 2 
10 16 19 2 
11 29 30 1 
12 17 18 1 
13 7 8 1 
14 8 9 1 
15 23 24 1 
16 22 23 1 
17 11 12 1 
18 5 6 1 
19 4 5 1 
20 26 27 1 
21 25 26 1 
22 2 3 1 
23 2 13 2 
24 13 14 1 
25 1 2 1 
26 1 15 2 
27 14 15 1 
ITEM: TIMESTEP
47500
ITEM: NUMBER OF ENTRIES
27
ITEM: BOX BOUNDS pp pp pp
-1.0000000000000000e+01 1.0000000000000000e+01
-1.0000000000000000e+01 1.0000000000000000e+01
-1.0000000000000000e+01 1.0000000000000000e+01
ITEM: ENTRIES index c_bondedatomid1 c_bondedatomid2 c_btype
1 20 21 1 
2 19 20 1 
3 10 11 1 
4 18 28 2 
5 18 20 2 
6 28 29 1 
7 21 29 2 
8 16 17 1 
9 16 29 2 
10 16 19 2 
11 29 30 1 
12 17 18 1 
13 7 8 1 
14 8 9 1 
15 23 24 1 
16 22 23 1 
17 11 12 1 
18 5 6 1 
19 4 5 1 
20 26 27 1 
21 25 26 1 
22 2 3 1 
23 2 13 2 
24 13 14 1 
25 1 2 1 
26 1 15 2 
27 14 15 1 
ITEM: TIMESTEP
47600
ITEM: NUMBER OF ENTRIES
27
ITEM: BOX BOUNDS pp pp pp
-1.0000000000000000e+01 1.0000000000000000e+01
-1.0000000000000000e+01 1.0000000000000000e+01
-1.0000000000000000e+01 1.0000000000000000e+01
ITEM: ENTRIES index c_bondedatomid1 c_bondedatomid2 c_btype
1 20 21 1 
2 19 20 1 
3 10 11 1 
4 18 28 2 
5 18 20 2 
6 28 29 1 
7 21 29 2 
8 16 17 1 
9 16 29 2 
10 16 19 2 
11 29 30 1 
12 17 18 1 
13 7 8 1 
14 8 9 1 
15 23 24 1 
16 22 23 1 
17 11 12 1 
18 5 6 1 
19 4 5 1 
20 26 27 1 
21 25 26 1 
22 2 3 1 
23 2 13 2 
24 13 14 1 
25 1 2 1 
26 1 15 2 
27 14 15 1 
ITEM: TIMESTEP
47700
ITEM: NUMBER OF ENTRIES
27
ITEM: BOX BOUNDS pp pp pp
-1.0000000000000000e+01 1.0000000000000000e+01
-1.0000000000000000e+01 1.0000000000000000e+01
-1.0000000000000000e+01 1.0000000000000000e+01
ITEM: ENTRIES index c_bondedatomid1 c_bondedatomid2 c_btype
1 20 21 1 
2 19 20 1 
3 10 11 1 
4 18 28 2 
5 18 20 2 
6 28 29 1 
7 21 29 2 
8 16 17 1 
9 16 29 2 
10 16 19 2 
11 29 30 1 
12 17 18 1 
13 7 8 1 
14 8 9 1 
15 23 24 1 
16 22 23 1 
17 11 12 1 
18 5 6 1 
19 4 5 1 
20 26 27 1 
21 25 26 1 
22 2 3 1 
23 2 13 2 
24 13 14 1 
25 1 2 1 
26 1 15 2 
27 14 15 1 
ITEM: TIMESTEP
47800
ITEM: NUMBER OF ENTRIES
27
ITEM: BOX BOUNDS pp pp pp
-1.0000000000000000e+01 1.0000000000000000e+01
-1.0000000000000000e+01 1.0000000000000000e+01
-1.0000000000000000e+01 1.0000000000000000e+01
ITEM: ENTRIES index c_bondedatomid1 c_bondedatomid2 c_btype
1 20 21 1 
2 19 20 1 
3 10 11 1 
4 18 28 2 
5 18 20 2 
6 28 29 1 
7 21 29 2 
8 16 17 1 
9 16 29 2 
10 16 19 2 
11 29 30 1 
12 17 18 1 
13 7 8 1 
14 8 9 1 
15 23 24 1 
16 22 23 1 
17 11 12 1 
18 5 6 1 
19 4 5 1 
20 26 27 1 
21 25 26 1 
22 2 3 1 
23 2 13 2 
24 13 14 1 
25 1 2 1 
26 1 15 2 
27 14 15 1 
ITEM: TIMESTEP
47900
ITEM: NUMBER OF ENTRIES
27
ITEM: BOX BOUNDS pp pp pp
-1.0000000000000000e+01 1.0000000000000000e+01
-1.0000000000000000e+01 1.0000000000000000e+01
-1.0000000000000000e+01 1.0000000000000000e+01
ITEM: ENTRIES index c_bondedatomid1 c_bondedatomid2 c_btype
1 20 21 1 
2 19 20 1 
3 10 11 1 
4 18 28 2 
5 18 20 2 
6 28 29 1 
7 21 29 2 
8 16 17 1 
9 16 29 2 
10 16 19 2 
11 29 30 1 
12 17 18 1 
13 7 8 1 
14 8 9 1 
15 23 24 1 
16 22 23 1 
17 11 12 1 
18 5 6 1 
19 4 5 1 
20 26 27 1 
21 25 26 1 
22 2 3 1 
23 2 13 2 
24 13 14 1 
25 1 2 1 
26 1 15 2 
27 14 15 1 
ITEM: TIMESTEP
48000
ITEM: NUMBER OF ENTRIES
27
ITEM: BOX BOUNDS pp pp pp
-1.0000000000000000e+01 1.0000000000000000e+01
-1.0000000000000000e+01 1.0000000000000000e+01
-1.0000000000000000e+01 1.0000000000000000e+01
ITEM: ENTRIES index c_bondedatomid1 c_bondedatomid2 c_btype
1 20 21 1 
2 19 20 1 
3 10 11 1 
4 18 28 2 
5 18 20 2 
6 28 29 1 
7 21 29 2 
8 16 17 1 
9 16 29 2 
10 16 19 2 
11 29 30 1 
12 17 18 1 
13 7 8 1 
14 8 9 1 
15 23 24 1 
16 22 23 1 
17 11 12 1 
18 5 6 1 
19 4 5 1 
20 26 27 1 
21 25 26 1 
22 2 3 1 
23 2 13 2 
24 13 14 1 
25 1 2 1 
26 1 15 2 
27 14 15 1 
ITEM: TIMESTEP
48100
ITEM: NUMBER OF ENTRIES
27
ITEM: BOX BOUNDS pp pp pp
-1.0000000000000000e+01 1.0000000000000000e+01
-1.0000000000000000e+01 1.0000000000000000e+01
-1.0000000000000000e+01 1.0000000000000000e+01
ITEM: ENTRIES index c_bondedatomid1 c_bondedatomid2 c_btype
1 20 21 1 
2 19 20 1 
3 10 11 1 
4 18 28 2 
5 18 20 2 
6 28 29 1 
7 21 29 2 
8 16 17 1 
9 16 29 2 
10 16 19 2 
11 29 30 1 
12 17 18 1 
13 7 8 1 
14 8 9 1 
15 23 24 1 
16 22 23 1 
17 11 12 1 
18 5 6 1 
19 4 5 1 
20 26 27 1 
21 25 26 1 
22 2 3 1 
23 2 13 2 
24 13 14 1 
25 1 2 1 
26 1 15 2 
27 14 15 1 
ITEM: TIMESTEP
48200
ITEM: NUMBER OF ENTRIES
28
ITEM: BOX BOUNDS pp pp pp
-1.0000000000000000e+01 1.0000000000000000e+01
-1.0000000000000000e+01 1.0000000000000000e+01
-1.0000000000000000e+01 1.0000000000000000e+01
ITEM: ENTRIES index c_bondedatomid1 c_bondedatomid2 c_btype
1 18 28 2 
2 18 20 2 
3 21 29 2 
4 20 21 1 
5 19 20 1 
6 28 29 1 
7 16 17 1 
8 16 29 2 
9 16 19 2 
10 29 30 1 
11 17 18 1 
12 7 8 1 
13 8 9 1 
14 5 6 1 
15 23 24 1 
16 22 23 1 
17 10 11 1 
18 11 12 1 
19 6 7 2 
20 4 5 1 
21 26 27 1 
22 25 26 1 
23 2 3 1 
24 2 13 2 
25 13 14 1 
26 1 2 1 
27 1 15 2 
28 14 15 1 
ITEM: TIMESTEP
48300
ITEM: NUMBER OF ENTRIES
28
ITEM: BOX BOUNDS pp pp pp
-1.0000000000000000e+01 1.0000000000000000e+01
-1.0000000000000000e+01 1.0000000000000000e+01
-1.0000000000000000e+01 1.0000000000000000e+01
ITEM: ENTRIES index c_bondedatomid1 c_bondedatomid2 c_btype
1 18 28 2 
2 18 20 2 
3 21 29 2 
4 20 21 1 
5 19 20 1 
6 28 29 1 
7 16 17 1 
8 16 29 2 
9 16 19 2 
10 29 30 1 
11 17 18 1 
12 7 8 1 
13 8 9 1 
14 5 6 1 
15 23 24 1 
16 22 23 1 
17 10 11 1 
18 11 12 1 
19 6 7 2 
20 4 5 1 
21 26 27 1 
22 25 26 1 
23 2 3 1 
24 2 13 2 
25 13 14 1 
26 1 2 1 
27 1 15 2 
28 14 15 1 
ITEM: TIMESTEP
48400
ITEM: NUMBER OF ENTRIES
28
ITEM: BOX BOUNDS pp pp pp
-1.0000000000000000e+01 1.0000000000000000e+01
-1.0000000000000000e+01 1.0000000000000000e+01
-1.0000000000000000e+01 1.0000000000000000e+01
ITEM: ENTRIES index c_bondedatomid1 c_bondedatomid2 c_btype
1 18 28 2 
2 18 20 2 
3 21 29 2 
4 20 21 1 
5 19 20 1 
6 28 29 1 
7 16 17 1 
8 16 29 2 
9 16 19 2 
10 29 30 1 
11 17 18 1 
12 7 8 1 
13 8 9 1 
14 5 6 1 
15 23 24 1 
16 22 23 1 
17 10 11 1 
18 11 12 1 
19 6 7 2 
20 4 5 1 
21 26 27 1 
22 25 26 1 
23 2 3 1 
24 2 13 2 
25 13 14 1 
26 1 2 1 
27 1 15 2 
28 14 15 1 
ITEM: TIMESTEP
48500
ITEM: NUMBER OF ENTRIES
28
ITEM: BOX BOUNDS pp pp pp
-1.0000000000000000e+01 1.0000000000000000e+01
-1.0000000000000000e+01 1.0000000000000000e+01
-1.0000000000000000e+01 1.0000000000000000e+01
ITEM: ENTRIES index c_bondedatomid1 c_bondedatomid2 c_btype
1 18 28 2 
2 18 20 2 
3 21 29 2 
4 20 21 1 
5 19 20 1 
6 28 29 1 
7 16 17 1 
8 16 29 2 
9 16 19 2 
10 29 30 1 
11 17 18 1 
12 7 8 1 
13 8 9 1 
14 5 6 1 
15 23 24 1 
16 22 23 1 
17 10 11 1 
18 11 12 1 
19 6 7 2 
20 4 5 1 
21 26 27 1 
22 25 26 1 
23 2 3 1 
24 2 13 2 
25 13 14 1 
26 1 2 1 
27 1 15 2 
28 14 15 1 
ITEM: TIMESTEP
48600
ITEM: NUMBER OF ENTRIES
28
ITEM: BOX BOUNDS pp pp pp
-1.0000000000000000e+01 1.0000000000000000e+01
-1.0000000000000000e+01 1.0000000000000000e+01
-1.0000000000000000e+01 1.0000000000000000e+01
ITEM: ENTRIES index c_bondedatomid1 c_bondedatomid2 c_btype
1 18 28 2 
2 18 20 2 
3 21 29 2 
4 20 21 1 
5 19 20 1 
6 28 29 1 
7 16 17 1 
8 16 29 2 
9 16 19 2 
10 29 30 1 
11 17 18 1 
12 7 8 1 
13 8 9 1 
14 5 6 1 
15 23 24 1 
16 22 23 1 
17 10 11 1 
18 11 12 1 
19 6 7 2 
20 4 5 1 
21 26 27 1 
22 25 26 1 
23 2 3 1 
24 2 13 2 
25 13 14 1 
26 1 2 1 
27 1 15 2 
28 14 15 1 
ITEM: TIMESTEP
48700
ITEM: NUMBER OF ENTRIES
28
ITEM: BOX BOUNDS pp pp pp
-1.0000000000000000e+01 1.0000000000000000e+01
-1.0000000000000000e+01 1.0000000000000000e+01
-1.0000000000000000e+01 1.0000000000000000e+01
ITEM: ENTRIES index c_bondedatomid1 c_bondedatomid2 c_btype
1 18 28 2 
2 18 20 2 
3 21 29 2 
4 20 21 1 
5 19 20 1 
6 28 29 1 
7 16 17 1 
8 16 29 2 
9 16 19 2 
10 29 30 1 
11 17 18 1 
12 7 8 1 
13 8 9 1 
14 5 6 1 
15 23 24 1 
16 22 23 1 
17 10 11 1 
18 11 12 1 
19 6 7 2 
20 4 5 1 
21 26 27 1 
22 25 26 1 
23 2 3 1 
24 2 13 2 
25 13 14 1 
26 1 2 1 
27 1 15 2 
28 14 15 1 
ITEM: TIMESTEP
48800
ITEM: NUMBER OF ENTRIES
28
ITEM: BOX BOUNDS pp pp pp
-1.0000000000000000e+01 1.0000000000000000e+01
-1.0000000000000000e+01 1.0000000000000000e+01
-1.0000000000000000e+01 1.0000000000000000e+01
ITEM: ENTRIES index c_bondedatomid1 c_bondedatomid2 c_btype
1 18 28 2 
2 18 20 2 
3 21 29 2 
4 20 21 1 
5 19 20 1 
6 28 29 1 
7 16 17 1 
8 16 29 2 
9 16 19 2 
10 29 30 1 
11 17 18 1 
12 7 8 1 
13 8 9 1 
14 5 6 1 
15 23 24 1 
16 22 23 1 
17 10 11 1 
18 11 12 1 
19 6 7 2 
20 4 5 1 
21 26 27 1 
22 25 26 1 
23 2 3 1 
24 2 13 2 
25 13 14 1 
26 1 2 1 
27 1 15 2 
28 14 15 1 
ITEM: TIMESTEP
48900
ITEM: NUMBER OF ENTRIES
28
ITEM: BOX BOUNDS pp pp pp
-1.0000000000000000e+01 1.0000000000000000e+01
-1.0000000000000000e+01 1.0000000000000000e+01
-1.0000000000000000e+01 1.0000000000000000e+01
ITEM: ENTRIES index c_bondedatomid1 c_bondedatomid2 c_btype
1 18 28 2 
2 18 20 2 
3 21 29 2 
4 20 21 1 
5 19 20 1 
6 28 29 1 
7 16 17 1 
8 16 29 2 
9 16 19 2 
10 29 30 1 
11 17 18 1 
12 7 8 1 
13 8 9 1 
14 5 6 1 
15 23 24 1 
16 22 23 1 
17 10 11 1 
18 11 12 1 
19 6 7 2 
20 4 5 1 
21 26 27 1 
22 25 26 1 
23 2 3 1 
24 2 13 2 
25 13 14 1 
26 1 2 1 
27 1 15 2 
28 14 15 1 
ITEM: TIMESTEP
49000
ITEM: NUMBER OF ENTRIES
28
ITEM: BOX BOUNDS pp pp pp
-1.0000000000000000e+01 1.0000000000000000e+01
-1.0000000000000000e+01 1.0000000000000000e+01
-1.0000000000000000e+01 1.0000000000000000e+01
ITEM: ENTRIES index c_bondedatomid1 c_bondedatomid2 c_btype
1 18 28 2 
2 18 20 2 
3 21 29 2 
4 20 21 1 
5 19 20 1 
6 28 29 1 
7 16 17 1 
8 16 29 2 
9 16 19 2 
10 29 30 1 
11 17 18 1 
12 7 8 1 
13 8 9 1 
14 5 6 1 
15 23 24 1 
16 22 23 1 
17 10 11 1 
18 11 12 1 
19 6 7 2 
20 4 5 1 
21 26 27 1 
22 25 26 1 
23 2 3 1 
24 2 13 2 
25 13 14 1 
26 1 2 1 
27 1 15 2 
28 14 15 1 
ITEM: TIMESTEP
49100
ITEM: NUMBER OF ENTRIES
28
ITEM: BOX BOUNDS pp pp pp
-1.0000000000000000e+01 1.0000000000000000e+01
-1.0000000000000000e+01 1.0000000000000000e+01
-1.0000000000000000e+01 1.0000000000000000e+01
ITEM: ENTRIES index c_bondedatomid1 c_bondedatomid2 c_btype
1 18 28 2 
2 18 20 2 
3 21 29 2 
4 20 21 1 
5 19 20 1 
6 28 29 1 
7 16 17 1 
8 16 29 2 
9 16 19 2 
10 29 30 1 
11 17 18 1 
12 7 8 1 
13 8 9 1 
14 5 6 1 
15 23 24 1 
16 22 23 1 
17 10 11 1 
18 11 12 1 
19 6 7 2 
20 4 5 1 
21 26 27 1 
22 25 26 1 
23 2 3 1 
24 2 13 2 
25 13 14 1 
26 1 2 1 
27 1 15 2 
28 14 15 1 
ITEM: TIMESTEP
49200
ITEM: NUMBER OF ENTRIES
28
ITEM: BOX BOUNDS pp pp pp
-1.0000000000000000e+01 1.0000000000000000e+01
-1.0000000000000000e+01 1.0000000000000000e+01
-1.0000000000000000e+01 1.0000000000000000e+01
ITEM: ENTRIES index c_bondedatomid1 c_bondedatomid2 c_btype
1 18 28 2 
2 18 20 2 
3 21 29 2 
4 20 21 1 
5 19 20 1 
6 28 29 1 
7 16 17 1 
8 16 29 2 
9 16 19 2 
10 29 30 1 
11 17 18 1 
12 10 11 1 
13 7 8 1 
14 6 7 2 
15 4 5 1 
16 23 24 1 
17 22 23 1 
18 11 12 1 
19 5 6 1 
20 26 27 1 
21 8 9 1 
22 25 26 1 
23 13 14 1 
24 1 2 1 
25 1 15 2 
26 2 3 1 
27 2 13 2 
28 14 15 1 
ITEM: TIMESTEP
49300
ITEM: NUMBER OF ENTRIES
28
ITEM: BOX BOUNDS pp pp pp
-1.0000000000000000e+01 1.0000000000000000e+01
-1.0000000000000000e+01 1.0000000000000000e+01
-1.0000000000000000e+01 1.0000000000000000e+01
ITEM: ENTRIES index c_bondedatomid1 c_bondedatomid2 c_btype
1 18 28 2 
2 18 20 2 
3 21 29 2 
4 20 21 1 
5 19 20 1 
6 28 29 1 
7 16 17 1 
8 16 29 2 
9 16 19 2 
10 29 30 1 
11 17 18 1 
12 10 11 1 
13 7 8 1 
14 6 7 2 
15 4 5 1 
16 23 24 1 
17 22 23 1 
18 11 12 1 
19 5 6 1 
20 26 27 1 
21 8 9 1 
22 25 26 1 
23 13 14 1 
24 1 2 1 
25 1 15 2 
26 2 3 1 
27 2 13 2 
28 14 15 1 
ITEM: TIMESTEP
49400
ITEM: NUMBER OF ENTRIES
28
ITEM: BOX BOUNDS pp pp pp
-1.0000000000000000e+01 1.0000000000000000e+01
-1.0000000000000000e+01 1.0000000000000000e+01
-1.0000000000000000e+01 1.0000000000000000e+01
ITEM: ENTRIES index c_bondedatomid1 c_bondedatomid2 c_btype
1 18 28 2 
2 18 20 2 
3 21 29 2 
4 20 21 1 
5 19 20 1 
6 28 29 1 
7 16 17 1 
8 16 29 2 
9 16 19 2 
10 29 30 1 
11 17 18 1 
12 10 11 1 
13 7 8 1 
14 6 7 2 
15 4 5 1 
16 23 24 1 
17 22 23 1 
18 11 12 1 
19 5 6 1 
20 26 27 1 
21 8 9 1 
22 25 26 1 
23 13 14 1 
24 1 2 1 
25 1 15 2 
26 2 3 1 
27 2 13 2 
28 14 15 1 
ITEM: TIMESTEP
49500
ITEM: NUMBER OF ENTRIES
28
ITEM: BOX BOUNDS pp pp pp
-1.0000000000000000e+01 1.0000000000000000e+01
-1.0000000000000000e+01 1.0000000000000000e+01
-1.0000000000000000e+01 1.0000000000000000e+01
ITEM: ENTRIES index c_bondedatomid1 c_bondedatomid2 c_btype
1 18 28 2 
2 18 20 2 
3 21 29 2 
4 20 21 1 
5 19 20 1 
6 28 29 1 
7 16 17 1 
8 16 29 2 
9 16 19 2 
10 29 30 1 
11 17 18 1 
12 10 11 1 
13 7 8 1 
14 6 7 2 
15 4 5 1 
16 23 24 1 
17 22 23 1 
18 11 12 1 
19 5 6 1 
20 26 27 1 
21 8 9 1 
22 25 26 1 
23 13 14 1 
24 1 2 1 
25 1 15 2 
26 2 3 1 
27 2 13 2 
28 14 15 1 
ITEM: TIMESTEP
49600
ITEM: NUMBER OF ENTRIES
28
ITEM: BOX BOUNDS pp pp pp
-1.0000000000000000e+01 1.0000000000000000e+01
-1.0000000000000000e+01 1.0000000000000000e+01
-1.0000000000000000e+01 1.0000000000000000e+01
ITEM: ENTRIES index c_bondedatomid1 c_bondedatomid2 c_btype
1 18 28 2 
2 18 20 2 
3 21 29 2 
4 20 21 1 
5 19 20 1 
6 28 29 1 
7 16 17 1 
8 16 29 2 
9 16 19 2 
10 29 30 1 
11 17 18 1 
12 10 11 1 
13 7 8 1 
14 6 7 2 
15 4 5 1 
16 23 24 1 
17 22 23 1 
18 11 12 1 
19 5 6 1 
20 26 27 1 
21 8 9 1 
22 25 26 1 
23 13 14 1 
24 1 2 1 
25 1 15 2 
26 2 3 1 
27 2 13 2 
28 14 15 1 
ITEM: TIMESTEP
49700
ITEM: NUMBER OF ENTRIES
28
ITEM: BOX BOUNDS pp pp pp
-1.0000000000000000e+01 1.0000000000000000e+01
-1.0000000000000000e+01 1.0000000000000000e+01
-1.0000000000000000e+01 1.0000000000000000e+01
ITEM: ENTRIES index c_bondedatomid1 c_bondedatomid2 c_btype
1 18 28 2 
2 18 20 2 
3 21 29 2 
4 20 21 1 
5 19 20 1 
6 28 29 1 
7 16 17 1 
8 16 29 2 
9 16 19 2 
10 29 30 1 
11 17 18 1 
12 10 11 1 
13 7 8 1 
14 6 7 2 
15 4 5 1 
16 23 24 1 
17 22 23 1 
18 11 12 1 
19 5 6 1 
20 26 27 1 
21 8 9 1 
22 25 26 1 
23 13 14 1 
24 1 2 1 
25 1 15 2 
26 2 3 1 
27 2 13 2 
28 14 15 1 
ITEM: TIMESTEP
49800
ITEM: NUMBER OF ENTRIES
28
ITEM: BOX BOUNDS pp pp pp
-1.0000000000000000e+01 1.0000000000000000e+01
-1.0000000000000000e+01 1.0000000000000000e+01
-1.0000000000000000e+01 1.0000000000000000e+01
ITEM: ENTRIES index c_bondedatomid1 c_bondedatomid2 c_btype
1 18 28 2 
2 18 20 2 
3 21 29 2 
4 20 21 1 
5 19 20 1 
6 28 29 1 
7 16 17 1 
8 16 29 2 
9 16 19 2 
10 29 30 1 
11 17 18 1 
12 10 11 1 
13 7 8 1 
14 6 7 2 
15 4 5 1 
16 23 24 1 
17 22 23 1 
18 11 12 1 
19 5 6 1 
20 26 27 1 
21 8 9 1 
22 25 26 1 
23 13 14 1 
24 1 2 1 
25 1 15 2 
26 2 3 1 
27 2 13 2 
28 14 15 1 
ITEM: TIMESTEP
49900
ITEM: NUMBER OF ENTRIES
28
ITEM: BOX BOUNDS pp pp pp
-1.0000000000000000e+01 1.0000000000000000e+01
-1.0000000000000000e+01 1.0000000000000000e+01
-1.0000000000000000e+01 1.0000000000000000e+01
ITEM: ENTRIES index c_bondedatomid1 c_bondedatomid2 c_btype
1 18 28 2 
2 18 20 2 
3 21 29 2 
4 20 21 1 
5 19 20 1 
6 28 29 1 
7 16 17 1 
8 16 29 2 
9 16 19 2 
10 29 30 1 
11 17 18 1 
12 10 11 1 
13 7 8 1 
14 6 7 2 
15 4 5 1 
16 23 24 1 
17 22 23 1 
18 11 12 1 
19 5 6 1 
20 26 27 1 
21 8 9 1 
22 25 26 1 
23 13 14 1 
24 1 2 1 
25 1 15 2 
26 2 3 1 
27 2 13 2 
28 14 15 1 
ITEM: TIMESTEP
50000
ITEM: NUMBER OF ENTRIES
28
ITEM: BOX BOUNDS pp pp pp
-1.0000000000000000e+01 1.0000000000000000e+01
-1.0000000000000000e+01 1.0000000000000000e+01
-1.0000000000000000e+01 1.0000000000000000e+01
ITEM: ENTRIES index c_bondedatomid1 c_bondedatomid2 c_btype
1 18 28 2 
2 18 20 2 
3 21 29 2 
4 20 21 1 
5 19 20 1 
6 28 29 1 
7 16 17 1 
8 16 29 2 
9 16 19 2 
10 29 30 1 
11 17 18 1 
12 10 11 1 
13 7 8 1 
14 6 7 2 
15 4 5 1 
16 23 24 1 
17 22 23 1 
18 11 12 1 
19 5 6 1 
20 26 27 1 
21 8 9 1 
22 25 26 1 
23 13 14 1 
24 1 2 1 
25 1 15 2 
26 2 3 1 
27 2 13 2 
28 14 15 1 
ITEM: TIMESTEP
50100
ITEM: NUMBER OF ENTRIES
28
ITEM: BOX BOUNDS pp pp pp
-1.0000000000000000e+01 1.0000000000000000e+01
-1.0000000000000000e+01 1.0000000000000000e+01
-1.0000000000000000e+01 1.0000000000000000e+01
ITEM: ENTRIES index c_bondedatomid1 c_bondedatomid2 c_btype
1 18 28 2 
2 18 20 2 
3 21 29 2 
4 20 21 1 
5 19 20 1 
6 28 29 1 
7 16 17 1 
8 16 29 2 
9 16 19 2 
10 29 30 1 
11 17 18 1 
12 10 11 1 
13 7 8 1 
14 6 7 2 
15 4 5 1 
16 23 24 1 
17 22 23 1 
18 11 12 1 
19 5 6 1 
20 26 27 1 
21 8 9 1 
22 25 26 1 
23 13 14 1 
24 1 2 1 
25 1 15 2 
26 2 3 1 
27 2 13 2 
28 14 15 1 
ITEM: TIMESTEP
50200
ITEM: NUMBER OF ENTRIES
28
ITEM: BOX BOUNDS pp pp pp
-1.0000000000000000e+01 1.0000000000000000e+01
-1.0000000000000000e+01 1.0000000000000000e+01
-1.0000000000000000e+01 1.0000000000000000e+01
ITEM: ENTRIES index c_bondedatomid1 c_bondedatomid2 c_btype
1 17 18 1 
2 18 28 2 
3 18 20 2 
4 21 29 2 
5 20 21 1 
6 19 20 1 
7 28 29 1 
8 16 17 1 
9 16 29 2 
10 16 19 2 
11 29 30 1 
12 4 5 1 
13 5 6 1 
14 23 24 1 
15 22 23 1 
16 10 11 1 
17 11 12 1 
18 7 8 1 
19 8 9 1 
20 6 7 2 
21 26 27 1 
22 25 26 1 
23 13 14 1 
24 1 2 1 
25 1 15 2 
26 2 3 1 
27 2 13 2 
28 14 15 1 
ITEM: TIMESTEP
50300
ITEM: NUMBER OF ENTRIES
28
ITEM: BOX BOUNDS pp pp pp
-1.0000000000000000e+01 1.0000000000000000e+01
-1.0000000000000000e+01 1.0000000000000000e+01
-1.0000000000000000e+01 1.0000000000000000e+01
ITEM: ENTRIES index c_bondedatomid1 c_bondedatomid2 c_btype
1 17 18 1 
2 18 28 2 
3 18 20 2 
4 21 29 2 
5 20 21 1 
6 19 20 1 
7 28 29 1 
8 16 17 1 
9 16 29 2 
10 16 19 2 
11 29 30 1 
12 4 5 1 
13 5 6 1 
14 23 24 1 
15 22 23 1 
16 10 11 1 
17 11 12 1 
18 7 8 1 
19 8 9 1 
20 6 7 2 
21 26 27 1 
22 25 26 1 
23 13 14 1 
24 1 2 1 
25 1 15 2 
26 2 3 1 
27 2 13 2 
28 14 15 1 
ITEM: TIMESTEP
50400
ITEM: NUMBER OF ENTRIES
28
ITEM: BOX BOUNDS pp pp pp
-1.0000000000000000e+01 1.0000000000000000e+01
-1.0000000000000000e+01 1.0000000000000000e+01
-1.0000000000000000e+01 1.0000000000000000e+01
ITEM: ENTRIES index c_bondedatomid1 c_bondedatomid2 c_btype
1 17 18 1 
2 18 28 2 
3 18 20 2 
4 21 29 2 
5 20 21 1 
6 19 20 1 
7 28 29 1 
8 16 17 1 
9 16 29 2 
10 16 19 2 
11 29 30 1 
12 4 5 1 
13 5 6 1 
14 23 24 1 
15 22 23 1 
16 10 11 1 
17 11 12 1 
18 7 8 1 
19 8 9 1 
20 6 7 2 
21 26 27 1 
22 25 26 1 
23 13 14 1 
24 1 2 1 
25 1 15 2 
26 2 3 1 
27 2 13 2 
28 14 15 1 
ITEM: TIMESTEP
50500
ITEM: NUMBER OF ENTRIES
28
ITEM: BOX BOUNDS pp pp pp
-1.0000000000000000e+01 1.0000000000000000e+01
-1.0000000000000000e+01 1.0000000000000000e+01
-1.0000000000000000e+01 1.0000000000000000e+01
ITEM: ENTRIES index c_bondedatomid1 c_bondedatomid2 c_btype
1 17 18 1 
2 18 28 2 
3 18 20 2 
4 21 29 2 
5 20 21 1 
6 19 20 1 
7 28 29 1 
8 16 17 1 
9 16 29 2 
10 16 19 2 
11 29 30 1 
12 4 5 1 
13 5 6 1 
14 23 24 1 
15 22 23 1 
16 10 11 1 
17 11 12 1 
18 7 8 1 
19 8 9 1 
20 6 7 2 
21 26 27 1 
22 25 26 1 
23 13 14 1 
24 1 2 1 
25 1 15 2 
26 2 3 1 
27 2 13 2 
28 14 15 1 
ITEM: TIMESTEP
50600
ITEM: NUMBER OF ENTRIES
28
ITEM: BOX BOUNDS pp pp pp
-1.0000000000000000e+01 1.0000000000000000e+01
-1.0000000000000000e+01 1.0000000000000000e+01
-1.0000000000000000e+01 1.0000000000000000e+01
ITEM: ENTRIES index c_bondedatomid1 c_bondedatomid2 c_btype
1 17 18 1 
2 18 28 2 
3 18 20 2 
4 21 29 2 
5 20 21 1 
6 19 20 1 
7 28 29 1 
8 16 17 1 
9 16 29 2 
10 16 19 2 
11 29 30 1 
12 4 5 1 
13 5 6 1 
14 23 24 1 
15 22 23 1 
16 10 11 1 
17 11 12 1 
18 7 8 1 
19 8 9 1 
20 6 7 2 
21 26 27 1 
22 25 26 1 
23 13 14 1 
24 1 2 1 
25 1 15 2 
26 2 3 1 
27 2 13 2 
28 14 15 1 
ITEM: TIMESTEP
50700
ITEM: NUMBER OF ENTRIES
28
ITEM: BOX BOUNDS pp pp pp
-1.0000000000000000e+01 1.0000000000000000e+01
-1.0000000000000000e+01 1.0000000000000000e+01
-1.0000000000000000e+01 1.0000000000000000e+01
ITEM: ENTRIES index c_bondedatomid1 c_bondedatomid2 c_btype
1 17 18 1 
2 18 28 2 
3 18 20 2 
4 21 29 2 
5 20 21 1 
6 19 20 1 
7 28 29 1 
8 16 17 1 
9 16 29 2 
10 16 19 2 
11 29 30 1 
12 4 5 1 
13 5 6 1 
14 23 24 1 
15 22 23 1 
16 10 11 1 
17 11 12 1 
18 7 8 1 
19 8 9 1 
20 6 7 2 
21 26 27 1 
22 25 26 1 
23 13 14 1 
24 1 2 1 
25 1 15 2 
26 2 3 1 
27 2 13 2 
28 14 15 1 
ITEM: TIMESTEP
50800
ITEM: NUMBER OF ENTRIES
28
ITEM: BOX BOUNDS pp pp pp
-1.0000000000000000e+01 1.0000000000000000e+01
-1.0000000000000000e+01 1.0000000000000000e+01
-1.0000000000000000e+01 1.0000000000000000e+01
ITEM: ENTRIES index c_bondedatomid1 c_bondedatomid2 c_btype
1 17 18 1 
2 18 28 2 
3 18 20 2 
4 21 29 2 
5 20 21 1 
6 19 20 1 
7 28 29 1 
8 16 17 1 
9 16 29 2 
10 16 19 2 
11 29 30 1 
12 4 5 1 
13 5 6 1 
14 23 24 1 
15 22 23 1 
16 10 11 1 
17 11 12 1 
18 7 8 1 
19 8 9 1 
20 6 7 2 
21 26 27 1 
22 25 26 1 
23 13 14 1 
24 1 2 1 
25 1 15 2 
26 2 3 1 
27 2 13 2 
28 14 15 1 
ITEM: TIMESTEP
50900
ITEM: NUMBER OF ENTRIES
28
ITEM: BOX BOUNDS pp pp pp
-1.0000000000000000e+01 1.0000000000000000e+01
-1.0000000000000000e+01 1.0000000000000000e+01
-1.0000000000000000e+01 1.0000000000000000e+01
ITEM: ENTRIES index c_bondedatomid1 c_bondedatomid2 c_btype
1 17 18 1 
2 18 28 2 
3 18 20 2 
4 21 29 2 
5 20 21 1 
6 19 20 1 
7 28 29 1 
8 16 17 1 
9 16 29 2 
10 16 19 2 
11 29 30 1 
12 4 5 1 
13 5 6 1 
14 23 24 1 
15 22 23 1 
16 10 11 1 
17 11 12 1 
18 7 8 1 
19 8 9 1 
20 6 7 2 
21 26 27 1 
22 25 26 1 
23 13 14 1 
24 1 2 1 
25 1 15 2 
26 2 3 1 
27 2 13 2 
28 14 15 1 
ITEM: TIMESTEP
51000
ITEM: NUMBER OF ENTRIES
28
ITEM: BOX BOUNDS pp pp pp
-1.0000000000000000e+01 1.0000000000000000e+01
-1.0000000000000000e+01 1.0000000000000000e+01
-1.0000000000000000e+01 1.0000000000000000e+01
ITEM: ENTRIES index c_bondedatomid1 c_bondedatomid2 c_btype
1 17 18 1 
2 18 28 2 
3 18 20 2 
4 21 29 2 
5 20 21 1 
6 19 20 1 
7 28 29 1 
8 16 17 1 
9 16 29 2 
10 16 19 2 
11 29 30 1 
12 4 5 1 
13 5 6 1 
14 23 24 1 
15 22 23 1 
16 10 11 1 
17 11 12 1 
18 7 8 1 
19 8 9 1 
20 6 7 2 
21 26 27 1 
22 25 26 1 
23 13 14 1 
24 1 2 1 
25 1 15 2 
26 2 3 1 
27 2 13 2 
28 14 15 1 
ITEM: TIMESTEP
51100
ITEM: NUMBER OF ENTRIES
28
ITEM: BOX BOUNDS pp pp pp
-1.0000000000000000e+01 1.0000000000000000e+01
-1.0000000000000000e+01 1.0000000000000000e+01
-1.0000000000000000e+01 1.0000000000000000e+01
ITEM: ENTRIES index c_bondedatomid1 c_bondedatomid2 c_btype
1 17 18 1 
2 18 28 2 
3 18 20 2 
4 21 29 2 
5 20 21 1 
6 19 20 1 
7 28 29 1 
8 16 17 1 
9 16 29 2 
10 16 19 2 
11 29 30 1 
12 10 11 1 
13 5 6 1 
14 8 9 1 
15 6 7 2 
16 23 24 1 
17 22 23 1 
18 11 12 1 
19 7 8 1 
20 4 5 1 
21 26 27 1 
22 25 26 1 
23 1 2 1 
24 1 15 2 
25 2 3 1 
26 2 13 2 
27 13 14 1 
28 14 15 1 
ITEM: TIMESTEP
51200
ITEM: NUMBER OF ENTRIES
28
ITEM: BOX BOUNDS pp pp pp
-1.0000000000000000e+01 1.0000000000000000e+01
-1.0000000000000000e+01 1.0000000000000000e+01
-1.0000000000000000e+01 1.0000000000000000e+01
ITEM: ENTRIES index c_bondedatomid1 c_bondedatomid2 c_btype
1 17 18 1 
2 18 28 2 
3 18 20 2 
4 21 29 2 
5 20 21 1 
6 19 20 1 
7 28 29 1 
8 16 17 1 
9 16 29 2 
10 16 19 2 
11 29 30 1 
12 10 11 1 
13 5 6 1 
14 8 9 1 
15 6 7 2 
16 23 24 1 
17 22 23 1 
18 11 12 1 
19 7 8 1 
20 4 5 1 
21 26 27 1 
22 25 26 1 
23 1 2 1 
24 1 15 2 
25 2 3 1 
26 2 13 2 
27 13 14 1 
28 14 15 1 
ITEM: TIMESTEP
51300
ITEM: NUMBER OF ENTRIES
28
ITEM: BOX BOUNDS pp pp pp
-1.0000000000000000e+01 1.0000000000000000e+01
-1.0000000000000000e+01 1.0000000000000000e+01
-1.0000000000000000e+01 1.0000000000000000e+01
ITEM: ENTRIES index c_bondedatomid1 c_bondedatomid2 c_btype
1 17 18 1 
2 18 28 2 
3 18 20 2 
4 21 29 2 
5 20 21 1 
6 19 20 1 
7 28 29 1 
8 16 17 1 
9 16 29 2 
10 16 19 2 
11 29 30 1 
12 10 11 1 
13 5 6 1 
14 8 9 1 
15 6 7 2 
16 23 24 1 
17 22 23 1 
18 11 12 1 
19 7 8 1 
20 4 5 1 
21 26 27 1 
22 25 26 1 
23 1 2 1 
24 1 15 2 
25 2 3 1 
26 2 13 2 
27 13 14 1 
28 14 15 1 
ITEM: TIMESTEP
51400
ITEM: NUMBER OF ENTRIES
28
ITEM: BOX BOUNDS pp pp pp
-1.0000000000000000e+01 1.0000000000000000e+01
-1.0000000000000000e+01 1.0000000000000000e+01
-1.0000000000000000e+01 1.0000000000000000e+01
ITEM: ENTRIES index c_bondedatomid1 c_bondedatomid2 c_btype
1 17 18 1 
2 18 28 2 
3 18 20 2 
4 21 29 2 
5 20 21 1 
6 19 20 1 
7 28 29 1 
8 16 17 1 
9 16 29 2 
10 16 19 2 
11 29 30 1 
12 10 11 1 
13 5 6 1 
14 8 9 1 
15 6 7 2 
16 23 24 1 
17 22 23 1 
18 11 12 1 
19 7 8 1 
20 4 5 1 
21 26 27 1 
22 25 26 1 
23 1 2 1 
24 1 15 2 
25 2 3 1 
26 2 13 2 
27 13 14 1 
28 14 15 1 
ITEM: TIMESTEP
51500
ITEM: NUMBER OF ENTRIES
28
ITEM: BOX BOUNDS pp pp pp
-1.0000000000000000e+01 1.0000000000000000e+01
-1.0000000000000000e+01 1.0000000000000000e+01
-1.0000000000000000e+01 1.0000000000000000e+01
ITEM: ENTRIES index c_bondedatomid1 c_bondedatomid2 c_btype
1 17 18 1 
2 18 28 2 
3 18 20 2 
4 21 29 2 
5 20 21 1 
6 19 20 1 
7 28 29 1 
8 16 17 1 
9 16 29 2 
10 16 19 2 
11 29 30 1 
12 10 11 1 
13 5 6 1 
14 8 9 1 
15 6 7 2 
16 23 24 1 
17 22 23 1 
18 11 12 1 
19 7 8 1 
20 4 5 1 
21 26 27 1 
22 25 26 1 
23 1 2 1 
24 1 15 2 
25 2 3 1 
26 2 13 2 
27 13 14 1 
28 14 15 1 
ITEM: TIMESTEP
51600
ITEM: NUMBER OF ENTRIES
28
ITEM: BOX BOUNDS pp pp pp
-1.0000000000000000e+01 1.0000000000000000e+01
-1.0000000000000000e+01 1.0000000000000000e+01
-1.0000000000000000e+01 1.0000000000000000e+01
ITEM: ENTRIES index c_bondedatomid1 c_bondedatomid2 c_btype
1 17 18 1 
2 18 28 2 
3 18 20 2 
4 21 29 2 
5 20 21 1 
6 19 20 1 
7 28 29 1 
8 16 17 1 
9 16 29 2 
10 16 19 2 
11 29 30 1 
12 10 11 1 
13 5 6 1 
14 8 9 1 
15 6 7 2 
16 23 24 1 
17 22 23 1 
18 11 12 1 
19 7 8 1 
20 4 5 1 
21 26 27 1 
22 25 26 1 
23 1 2 1 
24 1 15 2 
25 2 3 1 
26 2 13 2 
27 13 14 1 
28 14 15 1 
ITEM: TIMESTEP
51700
ITEM: NUMBER OF ENTRIES
28
ITEM: BOX BOUNDS pp pp pp
-1.0000000000000000e+01 1.0000000000000000e+01
-1.0000000000000000e+01 1.0000000000000000e+01
-1.0000000000000000e+01 1.0000000000000000e+01
ITEM: ENTRIES index c_bondedatomid1 c_bondedatomid2 c_btype
1 17 18 1 
2 18 28 2 
3 18 20 2 
4 21 29 2 
5 20 21 1 
6 19 20 1 
7 28 29 1 
8 16 17 1 
9 16 29 2 
10 16 19 2 
11 29 30 1 
12 10 11 1 
13 5 6 1 
14 8 9 1 
15 6 7 2 
16 23 24 1 
17 22 23 1 
18 11 12 1 
19 7 8 1 
20 4 5 1 
21 26 27 1 
22 25 26 1 
23 1 2 1 
24 1 15 2 
25 2 3 1 
26 2 13 2 
27 13 14 1 
28 14 15 1 
ITEM: TIMESTEP
51800
ITEM: NUMBER OF ENTRIES
28
ITEM: BOX BOUNDS pp pp pp
-1.0000000000000000e+01 1.0000000000000000e+01
-1.0000000000000000e+01 1.0000000000000000e+01
-1.0000000000000000e+01 1.0000000000000000e+01
ITEM: ENTRIES index c_bondedatomid1 c_bondedatomid2 c_btype
1 17 18 1 
2 18 28 2 
3 18 20 2 
4 21 29 2 
5 20 21 1 
6 19 20 1 
7 28 29 1 
8 16 17 1 
9 16 29 2 
10 16 19 2 
11 29 30 1 
12 10 11 1 
13 5 6 1 
14 8 9 1 
15 6 7 2 
16 23 24 1 
17 22 23 1 
18 11 12 1 
19 7 8 1 
20 4 5 1 
21 26 27 1 
22 25 26 1 
23 1 2 1 
24 1 15 2 
25 2 3 1 
26 2 13 2 
27 13 14 1 
28 14 15 1 
ITEM: TIMESTEP
51900
ITEM: NUMBER OF ENTRIES
28
ITEM: BOX BOUNDS pp pp pp
-1.0000000000000000e+01 1.0000000000000000e+01
-1.0000000000000000e+01 1.0000000000000000e+01
-1.0000000000000000e+01 1.0000000000000000e+01
ITEM: ENTRIES index c_bondedatomid1 c_bondedatomid2 c_btype
1 17 18 1 
2 18 28 2 
3 18 20 2 
4 21 29 2 
5 20 21 1 
6 19 20 1 
7 28 29 1 
8 16 17 1 
9 16 29 2 
10 16 19 2 
11 29 30 1 
12 10 11 1 
13 5 6 1 
14 8 9 1 
15 6 7 2 
16 23 24 1 
17 22 23 1 
18 11 12 1 
19 7 8 1 
20 4 5 1 
21 26 27 1 
22 25 26 1 
23 1 2 1 
24 1 15 2 
25 2 3 1 
26 2 13 2 
27 13 14 1 
28 14 15 1 
ITEM: TIMESTEP
52000
ITEM: NUMBER OF ENTRIES
28
ITEM: BOX BOUNDS pp pp pp
-1.0000000000000000e+01 1.0000000000000000e+01
-1.0000000000000000e+01 1.0000000000000000e+01
-1.0000000000000000e+01 1.0000000000000000e+01
ITEM: ENTRIES index c_bondedatomid1 c_bondedatomid2 c_btype
1 17 18 1 
2 18 28 2 
3 18 20 2 
4 21 29 2 
5 20 21 1 
6 19 20 1 
7 28 29 1 
8 16 17 1 
9 16 29 2 
10 16 19 2 
11 29 30 1 
12 10 11 1 
13 5 6 1 
14 8 9 1 
15 6 7 2 
16 23 24 1 
17 22 23 1 
18 11 12 1 
19 7 8 1 
20 4 5 1 
21 26 27 1 
22 25 26 1 
23 1 2 1 
24 1 15 2 
25 2 3 1 
26 2 13 2 
27 13 14 1 
28 14 15 1 
ITEM: TIMESTEP
52100
ITEM: NUMBER OF ENTRIES
28
ITEM: BOX BOUNDS pp pp pp
-1.0000000000000000e+01 1.0000000000000000e+01
-1.0000000000000000e+01 1.0000000000000000e+01
-1.0000000000000000e+01 1.0000000000000000e+01
ITEM: ENTRIES index c_bondedatomid1 c_bondedatomid2 c_btype
1 17 18 1 
2 18 28 2 
3 18 20 2 
4 21 29 2 
5 20 21 1 
6 19 20 1 
7 28 29 1 
8 16 17 1 
9 16 29 2 
10 16 19 2 
11 29 30 1 
12 10 11 1 
13 5 6 1 
14 8 9 1 
15 6 7 2 
16 23 24 1 
17 22 23 1 
18 11 12 1 
19 7 8 1 
20 4 5 1 
21 26 27 1 
22 25 26 1 
23 1 2 1 
24 1 15 2 
25 2 3 1 
26 2 13 2 
27 13 14 1 
28 14 15 1 
ITEM: TIMESTEP
52200
ITEM: NUMBER OF ENTRIES
28
ITEM: BOX BOUNDS pp pp pp
-1.0000000000000000e+01 1.0000000000000000e+01
-1.0000000000000000e+01 1.0000000000000000e+01
-1.0000000000000000e+01 1.0000000000000000e+01
ITEM: ENTRIES index c_bondedatomid1 c_bondedatomid2 c_btype
1 17 18 1 
2 18 28 2 
3 18 20 2 
4 21 29 2 
5 20 21 1 
6 16 17 1 
7 16 29 2 
8 16 19 2 
9 11 12 1 
10 19 20 1 
11 28 29 1 
12 29 30 1 
13 10 11 1 
14 5 6 1 
15 8 9 1 
16 6 7 2 
17 7 8 1 
18 4 5 1 
19 23 24 1 
20 22 23 1 
21 25 26 1 
22 26 27 1 
23 2 3 1 
24 2 13 2 
25 1 2 1 
26 1 15 2 
27 13 14 1 
28 14 15 1 
ITEM: TIMESTEP
52300
ITEM: NUMBER OF ENTRIES
28
ITEM: BOX BOUNDS pp pp pp
-1.0000000000000000e+01 1.0000000000000000e+01
-1.0000000000000000e+01 1.0000000000000000e+01
-1.0000000000000000e+01 1.0000000000000000e+01
ITEM: ENTRIES index c_bondedatomid1 c_bondedatomid2 c_btype
1 17 18 1 
2 18 28 2 
3 18 20 2 
4 21 29 2 
5 20 21 1 
6 16 17 1 
7 16 29 2 
8 16 19 2 
9 11 12 1 
10 19 20 1 
11 28 29 1 
12 29 30 1 
13 10 11 1 
14 5 6 1 
15 8 9 1 
16 6 7 2 
17 7 8 1 
18 4 5 1 
19 23 24 1 
20 22 23 1 
21 25 26 1 
22 26 27 1 
23 2 3 1 
24 2 13 2 
25 1 2 1 
26 1 15 2 
27 13 14 1 
28 14 15 1 
ITEM: TIMESTEP
52400
ITEM: NUMBER OF ENTRIES
28
ITEM: BOX BOUNDS pp pp pp
-1.0000000000000000e+01 1.0000000000000000e+01
-1.0000000000000000e+01 1.0000000000000000e+01
-1.0000000000000000e+01 1.0000000000000000e+01
ITEM: ENTRIES index c_bondedatomid1 c_bondedatomid2 c_btype
1 17 18 1 
2 18 28 2 
3 18 20 2 
4 21 29 2 
5 20 21 1 
6 16 17 1 
7 16 29 2 
8 16 19 2 
9 11 12 1 
10 19 20 1 
11 28 29 1 
12 29 30 1 
13 10 11 1 
14 5 6 1 
15 8 9 1 
16 6 7 2 
17 7 8 1 
18 4 5 1 
19 23 24 1 
20 22 23 1 
21 25 26 1 
22 26 27 1 
23 2 3 1 
24 2 13 2 
25 1 2 1 
26 1 15 2 
27 13 14 1 
28 14 15 1 
ITEM: TIMESTEP
52500
ITEM: NUMBER OF ENTRIES
28
ITEM: BOX BOUNDS pp pp pp
-1.0000000000000000e+01 1.0000000000000000e+01
-1.0000000000000000e+01 1.0000000000000000e+01
-1.0000000000000000e+01 1.0000000000000000e+01
ITEM: ENTRIES index c_bondedatomid1 c_bondedatomid2 c_btype
1 17 18 1 
2 18 28 2 
3 18 20 2 
4 21 29 2 
5 20 21 1 
6 16 17 1 
7 16 29 2 
8 16 19 2 
9 11 12 1 
10 19 20 1 
11 28 29 1 
12 29 30 1 
13 10 11 1 
14 5 6 1 
15 8 9 1 
16 6 7 2 
17 7 8 1 
18 4 5 1 
19 23 24 1 
20 22 23 1 
21 25 26 1 
22 26 27 1 
23 2 3 1 
24 2 13 2 
25 1 2 1 
26 1 15 2 
27 13 14 1 
28 14 15 1 
ITEM: TIMESTEP
52600
ITEM: NUMBER OF ENTRIES
28
ITEM: BOX BOUNDS pp pp pp
-1.0000000000000000e+01 1.0000000000000000e+01
-1.0000000000000000e+01 1.0000000000000000e+01
-1.0000000000000000e+01 1.0000000000000000e+01
ITEM: ENTRIES index c_bondedatomid1 c_bondedatomid2 c_btype
1 17 18 1 
2 18 28 2 
3 18 20 2 
4 21 29 2 
5 20 21 1 
6 16 17 1 
7 16 29 2 
8 16 19 2 
9 11 12 1 
10 19 20 1 
11 28 29 1 
12 29 30 1 
13 10 11 1 
14 5 6 1 
15 8 9 1 
16 6 7 2 
17 7 8 1 
18 4 5 1 
19 23 24 1 
20 22 23 1 
21 25 26 1 
22 26 27 1 
23 2 3 1 
24 2 13 2 
25 1 2 1 
26 1 15 2 
27 13 14 1 
28 14 15 1 
ITEM: TIMESTEP
52700
ITEM: NUMBER OF ENTRIES
29
ITEM: BOX BOUNDS pp pp pp
-1.0000000000000000e+01 1.0000000000000000e+01
-1.0000000000000000e+01 1.0000000000000000e+01
-1.0000000000000000e+01 1.0000000000000000e+01
ITEM: ENTRIES index c_bondedatomid1 c_bondedatomid2 c_btype
1 17 18 1 
2 18 28 2 
3 18 20 2 
4 21 29 2 
5 20 21 1 
6 16 17 1 
7 16 29 2 
8 16 19 2 
9 11 12 1 
10 19 20 1 
11 28 29 1 
12 29 30 1 
13 10 11 1 
14 5 6 1 
15 8 9 1 
16 6 7 2 
17 7 8 1 
18 4 5 1 
19 4 8 2 
20 23 24 1 
21 22 23 1 
22 25 26 1 
23 26 27 1 
24 2 3 1 
25 2 13 2 
26 1 2 1 
27 1 15 2 
28 13 14 1 
29 14 15 1 
ITEM: TIMESTEP
52800
ITEM: NUMBER OF ENTRIES
29
ITEM: BOX BOUNDS pp pp pp
-1.0000000000000000e+01 1.0000000000000000e+01
-1.0000000000000000e+01 1.0000000000000000e+01
-1.0000000000000000e+01 1.0000000000000000e+01
ITEM: ENTRIES index c_bondedatomid1 c_bondedatomid2 c_btype
1 17 18 1 
2 18 28 2 
3 18 20 2 
4 21 29 2 
5 20 21 1 
6 16 17 1 
7 16 29 2 
8 16 19 2 
9 11 12 1 
10 19 20 1 
11 28 29 1 
12 29 30 1 
13 10 11 1 
14 5 6 1 
15 8 9 1 
16 6 7 2 
17 7 8 1 
18 4 5 1 
19 4 8 2 
20 23 24 1 
21 22 23 1 
22 25 26 1 
23 26 27 1 
24 2 3 1 
25 2 13 2 
26 1 2 1 
27 1 15 2 
28 13 14 1 
29 14 15 1 
ITEM: TIMESTEP
52900
ITEM: NUMBER OF ENTRIES
29
ITEM: BOX BOUNDS pp pp pp
-1.0000000000000000e+01 1.0000000000000000e+01
-1.0000000000000000e+01 1.0000000000000000e+01
-1.0000000000000000e+01 1.0000000000000000e+01
ITEM: ENTRIES index c_bondedatomid1 c_bondedatomid2 c_btype
1 17 18 1 
2 18 28 2 
3 18 20 2 
4 21 29 2 
5 20 21 1 
6 16 17 1 
7 16 29 2 
8 16 19 2 
9 11 12 1 
10 19 20 1 
11 28 29 1 
12 29 30 1 
13 10 11 1 
14 5 6 1 
15 8 9 1 
16 6 7 2 
17 7 8 1 
18 4 5 1 
19 4 8 2 
20 23 24 1 
21 22 23 1 
22 25 26 1 
23 26 27 1 
24 2 3 1 
25 2 13 2 
26 1 2 1 
27 1 15 2 
28 13 14 1 
29 14 15 1 
ITEM: TIMESTEP
53000
ITEM: NUMBER OF ENTRIES
29
ITEM: BOX BOUNDS pp pp pp
-1.0000000000000000e+01 1.0000000000000000e+01
-1.0000000000000000e+01 1.0000000000000000e+01
-1.0000000000000000e+01 1.0000000000000000e+01
ITEM: ENTRIES index c_bondedatomid1 c_bondedatomid2 c_btype
1 17 18 1 
2 18 28 2 
3 18 20 2 
4 21 29 2 
5 20 21 1 
6 16 17 1 
7 16 29 2 
8 16 19 2 
9 11 12 1 
10 19 20 1 
11 28 29 1 
12 29 30 1 
13 10 11 1 
14 5 6 1 
15 8 9 1 
16 6 7 2 
17 7 8 1 
18 4 5 1 
19 4 8 2 
20 23 24 1 
21 22 23 1 
22 25 26 1 
23 26 27 1 
24 2 3 1 
25 2 13 2 
26 1 2 1 
27 1 15 2 
28 13 14 1 
29 14 15 1 
ITEM: TIMESTEP
53100
ITEM: NUMBER OF ENTRIES
29
ITEM: BOX BOUNDS pp pp pp
-1.0000000000000000e+01 1.0000000000000000e+01
-1.0000000000000000e+01 1.0000000000000000e+01
-1.0000000000000000e+01 1.0000000000000000e+01
ITEM: ENTRIES index c_bondedatomid1 c_bondedatomid2 c_btype
1 17 18 1 
2 21 29 2 
3 20 21 1 
4 16 17 1 
5 16 29 2 
6 16 19 2 
7 19 20 1 
8 28 29 1 
9 29 30 1 
10 11 12 1 
11 18 28 2 
12 18 20 2 
13 10 11 1 
14 23 24 1 
15 5 6 1 
16 8 9 1 
17 6 7 2 
18 7 8 1 
19 4 5 1 
20 4 8 2 
21 22 23 1 
22 25 26 1 
23 2 3 1 
24 2 13 2 
25 26 27 1 
26 1 2 1 
27 1 15 2 
28 13 14 1 
29 14 15 1 
ITEM: TIMESTEP
53200
ITEM: NUMBER OF ENTRIES
29
ITEM: BOX BOUNDS pp pp pp
-1.0000000000000000e+01 1.0000000000000000e+01
-1.0000000000000000e+01 1.0000000000000000e+01
-1.0000000000000000e+01 1.0000000000000000e+01
ITEM: ENTRIES index c_bondedatomid1 c_bondedatomid2 c_btype
1 17 18 1 
2 21 29 2 
3 20 21 1 
4 16 17 1 
5 16 29 2 
6 16 19 2 
7 19 20 1 
8 28 29 1 
9 29 30 1 
10 11 12 1 
11 18 28 2 
12 18 20 2 
13 10 11 1 
14 23 24 1 
15 5 6 1 
16 8 9 1 
17 6 7 2 
18 7 8 1 
19 4 5 1 
20 4 8 2 
21 22 23 1 
22 25 26 1 
23 2 3 1 
24 2 13 2 
25 26 27 1 
26 1 2 1 
27 1 15 2 
28 13 14 1 
29 14 15 1 
ITEM: TIMESTEP
53300
ITEM: NUMBER OF ENTRIES
29
ITEM: BOX BOUNDS pp pp pp
-1.0000000000000000e+01 1.0000000000000000e+01
-1.0000000000000000e+01 1.0000000000000000e+01
-1.0000000000000000e+01 1.0000000000000000e+01
ITEM: ENTRIES index c_bondedatomid1 c_bondedatomid2 c_btype
1 17 18 1 
2 21 29 2 
3 20 21 1 
4 16 17 1 
5 16 29 2 
6 16 19 2 
7 19 20 1 
8 28 29 1 
9 29 30 1 
10 11 12 1 
11 18 28 2 
12 18 20 2 
13 10 11 1 
14 23 24 1 
15 5 6 1 
16 8 9 1 
17 6 7 2 
18 7 8 1 
19 4 5 1 
20 4 8 2 
21 22 23 1 
22 25 26 1 
23 2 3 1 
24 2 13 2 
25 26 27 1 
26 1 2 1 
27 1 15 2 
28 13 14 1 
29 14 15 1 
ITEM: TIMESTEP
53400
ITEM: NUMBER OF ENTRIES
29
ITEM: BOX BOUNDS pp pp pp
-1.0000000000000000e+01 1.0000000000000000e+01
-1.0000000000000000e+01 1.0000000000000000e+01
-1.0000000000000000e+01 1.0000000000000000e+01
ITEM: ENTRIES index c_bondedatomid1 c_bondedatomid2 c_btype
1 17 18 1 
2 21 29 2 
3 20 21 1 
4 16 17 1 
5 16 29 2 
6 16 19 2 
7 19 20 1 
8 28 29 1 
9 29 30 1 
10 11 12 1 
11 18 28 2 
12 18 20 2 
13 10 11 1 
14 23 24 1 
15 5 6 1 
16 8 9 1 
17 6 7 2 
18 7 8 1 
19 4 5 1 
20 4 8 2 
21 22 23 1 
22 25 26 1 
23 2 3 1 
24 2 13 2 
25 26 27 1 
26 1 2 1 
27 1 15 2 
28 13 14 1 
29 14 15 1 
ITEM: TIMESTEP
53500
ITEM: NUMBER OF ENTRIES
29
ITEM: BOX BOUNDS pp pp pp
-1.0000000000000000e+01 1.0000000000000000e+01
-1.0000000000000000e+01 1.0000000000000000e+01
-1.0000000000000000e+01 1.0000000000000000e+01
ITEM: ENTRIES index c_bondedatomid1 c_bondedatomid2 c_btype
1 17 18 1 
2 21 29 2 
3 20 21 1 
4 16 17 1 
5 16 29 2 
6 16 19 2 
7 19 20 1 
8 28 29 1 
9 29 30 1 
10 11 12 1 
11 18 28 2 
12 18 20 2 
13 10 11 1 
14 23 24 1 
15 5 6 1 
16 8 9 1 
17 6 7 2 
18 7 8 1 
19 4 5 1 
20 4 8 2 
21 22 23 1 
22 25 26 1 
23 2 3 1 
24 2 13 2 
25 26 27 1 
26 1 2 1 
27 1 15 2 
28 13 14 1 
29 14 15 1 
ITEM: TIMESTEP
53600
ITEM: NUMBER OF ENTRIES
29
ITEM: BOX BOUNDS pp pp pp
-1.0000000000000000e+01 1.0000000000000000e+01
-1.0000000000000000e+01 1.0000000000000000e+01
-1.0000000000000000e+01 1.0000000000000000e+01
ITEM: ENTRIES index c_bondedatomid1 c_bondedatomid2 c_btype
1 17 18 1 
2 21 29 2 
3 20 21 1 
4 16 17 1 
5 16 29 2 
6 16 19 2 
7 19 20 1 
8 28 29 1 
9 29 30 1 
10 11 12 1 
11 18 28 2 
12 18 20 2 
13 10 11 1 
14 23 24 1 
15 5 6 1 
16 8 9 1 
17 6 7 2 
18 7 8 1 
19 4 5 1 
20 4 8 2 
21 22 23 1 
22 25 26 1 
23 2 3 1 
24 2 13 2 
25 26 27 1 
26 1 2 1 
27 1 15 2 
28 13 14 1 
29 14 15 1 
ITEM: TIMESTEP
53700
ITEM: NUMBER OF ENTRIES
29
ITEM: BOX BOUNDS pp pp pp
-1.0000000000000000e+01 1.0000000000000000e+01
-1.0000000000000000e+01 1.0000000000000000e+01
-1.0000000000000000e+01 1.0000000000000000e+01
ITEM: ENTRIES index c_bondedatomid1 c_bondedatomid2 c_btype
1 17 18 1 
2 21 29 2 
3 20 21 1 
4 16 17 1 
5 16 29 2 
6 16 19 2 
7 19 20 1 
8 28 29 1 
9 29 30 1 
10 11 12 1 
11 18 28 2 
12 18 20 2 
13 10 11 1 
14 23 24 1 
15 5 6 1 
16 8 9 1 
17 6 7 2 
18 7 8 1 
19 4 5 1 
20 4 8 2 
21 22 23 1 
22 25 26 1 
23 2 3 1 
24 2 13 2 
25 26 27 1 
26 1 2 1 
27 1 15 2 
28 13 14 1 
29 14 15 1 
ITEM: TIMESTEP
53800
ITEM: NUMBER OF ENTRIES
29
ITEM: BOX BOUNDS pp pp pp
-1.0000000000000000e+01 1.0000000000000000e+01
-1.0000000000000000e+01 1.0000000000000000e+01
-1.0000000000000000e+01 1.0000000000000000e+01
ITEM: ENTRIES index c_bondedatomid1 c_bondedatomid2 c_btype
1 17 18 1 
2 21 29 2 
3 20 21 1 
4 16 17 1 
5 16 29 2 
6 16 19 2 
7 19 20 1 
8 28 29 1 
9 29 30 1 
10 11 12 1 
11 18 28 2 
12 18 20 2 
13 10 11 1 
14 23 24 1 
15 5 6 1 
16 8 9 1 
17 6 7 2 
18 7 8 1 
19 4 5 1 
20 4 8 2 
21 22 23 1 
22 25 26 1 
23 2 3 1 
24 2 13 2 
25 26 27 1 
26 1 2 1 
27 1 15 2 
28 13 14 1 
29 14 15 1 
ITEM: TIMESTEP
53900
ITEM: NUMBER OF ENTRIES
29
ITEM: BOX BOUNDS pp pp pp
-1.0000000000000000e+01 1.0000000000000000e+01
-1.0000000000000000e+01 1.0000000000000000e+01
-1.0000000000000000e+01 1.0000000000000000e+01
ITEM: ENTRIES index c_bondedatomid1 c_bondedatomid2 c_btype
1 17 18 1 
2 21 29 2 
3 20 21 1 
4 16 17 1 
5 16 29 2 
6 16 19 2 
7 19 20 1 
8 28 29 1 
9 29 30 1 
10 11 12 1 
11 18 28 2 
12 18 20 2 
13 10 11 1 
14 23 24 1 
15 5 6 1 
16 8 9 1 
17 6 7 2 
18 7 8 1 
19 4 5 1 
20 4 8 2 
21 22 23 1 
22 25 26 1 
23 2 3 1 
24 2 13 2 
25 26 27 1 
26 1 2 1 
27 1 15 2 
28 13 14 1 
29 14 15 1 
ITEM: TIMESTEP
54000
ITEM: NUMBER OF ENTRIES
29
ITEM: BOX BOUNDS pp pp pp
-1.0000000000000000e+01 1.0000000000000000e+01
-1.0000000000000000e+01 1.0000000000000000e+01
-1.0000000000000000e+01 1.0000000000000000e+01
ITEM: ENTRIES index c_bondedatomid1 c_bondedatomid2 c_btype
1 17 18 1 
2 21 29 2 
3 20 21 1 
4 16 17 1 
5 16 29 2 
6 16 19 2 
7 19 20 1 
8 28 29 1 
9 29 30 1 
10 11 12 1 
11 18 28 2 
12 18 20 2 
13 10 11 1 
14 23 24 1 
15 5 6 1 
16 8 9 1 
17 6 7 2 
18 7 8 1 
19 4 5 1 
20 4 8 2 
21 22 23 1 
22 25 26 1 
23 2 3 1 
24 2 13 2 
25 26 27 1 
26 1 2 1 
27 1 15 2 
28 13 14 1 
29 14 15 1 
ITEM: TIMESTEP
54100
ITEM: NUMBER OF ENTRIES
29
ITEM: BOX BOUNDS pp pp pp
-1.0000000000000000e+01 1.0000000000000000e+01
-1.0000000000000000e+01 1.0000000000000000e+01
-1.0000000000000000e+01 1.0000000000000000e+01
ITEM: ENTRIES index c_bondedatomid1 c_bondedatomid2 c_btype
1 17 18 1 
2 21 29 2 
3 20 21 1 
4 16 17 1 
5 16 29 2 
6 16 19 2 
7 19 20 1 
8 28 29 1 
9 29 30 1 
10 11 12 1 
11 18 28 2 
12 18 20 2 
13 10 11 1 
14 23 24 1 
15 5 6 1 
16 8 9 1 
17 6 7 2 
18 7 8 1 
19 4 5 1 
20 4 8 2 
21 22 23 1 
22 25 26 1 
23 2 3 1 
24 2 13 2 
25 26 27 1 
26 1 2 1 
27 1 15 2 
28 13 14 1 
29 14 15 1 
ITEM: TIMESTEP
54200
ITEM: NUMBER OF ENTRIES
29
ITEM: BOX BOUNDS pp pp pp
-1.0000000000000000e+01 1.0000000000000000e+01
-1.0000000000000000e+01 1.0000000000000000e+01
-1.0000000000000000e+01 1.0000000000000000e+01
ITEM: ENTRIES index c_bondedatomid1 c_bondedatomid2 c_btype
1 20 21 1 
2 16 17 1 
3 16 29 2 
4 16 19 2 
5 19 20 1 
6 28 29 1 
7 11 12 1 
8 10 11 1 
9 17 18 1 
10 21 29 2 
11 29 30 1 
12 18 28 2 
13 18 20 2 
14 23 24 1 
15 5 6 1 
16 8 9 1 
17 6 7 2 
18 7 8 1 
19 4 5 1 
20 4 8 2 
21 22 23 1 
22 1 2 1 
23 1 15 2 
24 25 26 1 
25 26 27 1 
26 2 3 1 
27 2 13 2 
28 13 14 1 
29 14 15 1 
ITEM: TIMESTEP
54300
ITEM: NUMBER OF ENTRIES
29
ITEM: BOX BOUNDS pp pp pp
-1.0000000000000000e+01 1.0000000000000000e+01
-1.0000000000000000e+01 1.0000000000000000e+01
-1.0000000000000000e+01 1.0000000000000000e+01
ITEM: ENTRIES index c_bondedatomid1 c_bondedatomid2 c_btype
1 20 21 1 
2 16 17 1 
3 16 29 2 
4 16 19 2 
5 19 20 1 
6 28 29 1 
7 11 12 1 
8 10 11 1 
9 17 18 1 
10 21 29 2 
11 29 30 1 
12 18 28 2 
13 18 20 2 
14 23 24 1 
15 5 6 1 
16 8 9 1 
17 6 7 2 
18 7 8 1 
19 4 5 1 
20 4 8 2 
21 22 23 1 
22 1 2 1 
23 1 15 2 
24 25 26 1 
25 26 27 1 
26 2 3 1 
27 2 13 2 
28 13 14 1 
29 14 15 1 
ITEM: TIMESTEP
54400
ITEM: NUMBER OF ENTRIES
29
ITEM: BOX BOUNDS pp pp pp
-1.0000000000000000e+01 1.0000000000000000e+01
-1.0000000000000000e+01 1.0000000000000000e+01
-1.0000000000000000e+01 1.0000000000000000e+01
ITEM: ENTRIES index c_bondedatomid1 c_bondedatomid2 c_btype
1 20 21 1 
2 16 17 1 
3 16 29 2 
4 16 19 2 
5 19 20 1 
6 28 29 1 
7 11 12 1 
8 10 11 1 
9 17 18 1 
10 21 29 2 
11 29 30 1 
12 18 28 2 
13 18 20 2 
14 23 24 1 
15 5 6 1 
16 8 9 1 
17 6 7 2 
18 7 8 1 
19 4 5 1 
20 4 8 2 
21 22 23 1 
22 1 2 1 
23 1 15 2 
24 25 26 1 
25 26 27 1 
26 2 3 1 
27 2 13 2 
28 13 14 1 
29 14 15 1 
ITEM: TIMESTEP
54500
ITEM: NUMBER OF ENTRIES
29
ITEM: BOX BOUNDS pp pp pp
-1.0000000000000000e+01 1.0000000000000000e+01
-1.0000000000000000e+01 1.0000000000000000e+01
-1.0000000000000000e+01 1.0000000000000000e+01
ITEM: ENTRIES index c_bondedatomid1 c_bondedatomid2 c_btype
1 20 21 1 
2 16 17 1 
3 16 29 2 
4 16 19 2 
5 19 20 1 
6 28 29 1 
7 11 12 1 
8 10 11 1 
9 17 18 1 
10 21 29 2 
11 29 30 1 
12 18 28 2 
13 18 20 2 
14 23 24 1 
15 5 6 1 
16 8 9 1 
17 6 7 2 
18 7 8 1 
19 4 5 1 
20 4 8 2 
21 22 23 1 
22 1 2 1 
23 1 15 2 
24 25 26 1 
25 26 27 1 
26 2 3 1 
27 2 13 2 
28 13 14 1 
29 14 15 1 
ITEM: TIMESTEP
54600
ITEM: NUMBER OF ENTRIES
29
ITEM: BOX BOUNDS pp pp pp
-1.0000000000000000e+01 1.0000000000000000e+01
-1.0000000000000000e+01 1.0000000000000000e+01
-1.0000000000000000e+01 1.0000000000000000e+01
ITEM: ENTRIES index c_bondedatomid1 c_bondedatomid2 c_btype
1 20 21 1 
2 16 17 1 
3 16 29 2 
4 16 19 2 
5 19 20 1 
6 28 29 1 
7 11 12 1 
8 10 11 1 
9 17 18 1 
10 21 29 2 
11 29 30 1 
12 18 28 2 
13 18 20 2 
14 23 24 1 
15 5 6 1 
16 8 9 1 
17 6 7 2 
18 7 8 1 
19 4 5 1 
20 4 8 2 
21 22 23 1 
22 1 2 1 
23 1 15 2 
24 25 26 1 
25 26 27 1 
26 2 3 1 
27 2 13 2 
28 13 14 1 
29 14 15 1 
ITEM: TIMESTEP
54700
ITEM: NUMBER OF ENTRIES
29
ITEM: BOX BOUNDS pp pp pp
-1.0000000000000000e+01 1.0000000000000000e+01
-1.0000000000000000e+01 1.0000000000000000e+01
-1.0000000000000000e+01 1.0000000000000000e+01
ITEM: ENTRIES index c_bondedatomid1 c_bondedatomid2 c_btype
1 20 21 1 
2 16 17 1 
3 16 29 2 
4 16 19 2 
5 19 20 1 
6 28 29 1 
7 11 12 1 
8 10 11 1 
9 17 18 1 
10 21 29 2 
11 29 30 1 
12 18 28 2 
13 18 20 2 
14 23 24 1 
15 5 6 1 
16 8 9 1 
17 6 7 2 
18 7 8 1 
19 4 5 1 
20 4 8 2 
21 22 23 1 
22 1 2 1 
23 1 15 2 
24 25 26 1 
25 26 27 1 
26 2 3 1 
27 2 13 2 
28 13 14 1 
29 14 15 1 
ITEM: TIMESTEP
54800
ITEM: NUMBER OF ENTRIES
29
ITEM: BOX BOUNDS pp pp pp
-1.0000000000000000e+01 1.0000000000000000e+01
-1.0000000000000000e+01 1.0000000000000000e+01
-1.0000000000000000e+01 1.0000000000000000e+01
ITEM: ENTRIES index c_bondedatomid1 c_bondedatomid2 c_btype
1 20 21 1 
2 16 17 1 
3 16 29 2 
4 16 19 2 
5 19 20 1 
6 28 29 1 
7 11 12 1 
8 10 11 1 
9 17 18 1 
10 21 29 2 
11 29 30 1 
12 18 28 2 
13 18 20 2 
14 23 24 1 
15 5 6 1 
16 8 9 1 
17 6 7 2 
18 7 8 1 
19 4 5 1 
20 4 8 2 
21 22 23 1 
22 1 2 1 
23 1 15 2 
24 25 26 1 
25 26 27 1 
26 2 3 1 
27 2 13 2 
28 13 14 1 
29 14 15 1 
ITEM: TIMESTEP
54900
ITEM: NUMBER OF ENTRIES
29
ITEM: BOX BOUNDS pp pp pp
-1.0000000000000000e+01 1.0000000000000000e+01
-1.0000000000000000e+01 1.0000000000000000e+01
-1.0000000000000000e+01 1.0000000000000000e+01
ITEM: ENTRIES index c_bondedatomid1 c_bondedatomid2 c_btype
1 20 21 1 
2 16 17 1 
3 16 29 2 
4 16 19 2 
5 19 20 1 
6 28 29 1 
7 11 12 1 
8 10 11 1 
9 17 18 1 
10 21 29 2 
11 29 30 1 
12 18 28 2 
13 18 20 2 
14 23 24 1 
15 5 6 1 
16 8 9 1 
17 6 7 2 
18 7 8 1 
19 4 5 1 
20 4 8 2 
21 22 23 1 
22 1 2 1 
23 1 15 2 
24 25 26 1 
25 26 27 1 
26 2 3 1 
27 2 13 2 
28 13 14 1 
29 14 15 1 
ITEM: TIMESTEP
55000
ITEM: NUMBER OF ENTRIES
29
ITEM: BOX BOUNDS pp pp pp
-1.0000000000000000e+01 1.0000000000000000e+01
-1.0000000000000000e+01 1.0000000000000000e+01
-1.0000000000000000e+01 1.0000000000000000e+01
ITEM: ENTRIES index c_bondedatomid1 c_bondedatomid2 c_btype
1 20 21 1 
2 16 17 1 
3 16 29 2 
4 16 19 2 
5 19 20 1 
6 28 29 1 
7 11 12 1 
8 10 11 1 
9 17 18 1 
10 21 29 2 
11 29 30 1 
12 18 28 2 
13 18 20 2 
14 23 24 1 
15 5 6 1 
16 8 9 1 
17 6 7 2 
18 7 8 1 
19 4 5 1 
20 4 8 2 
21 22 23 1 
22 1 2 1 
23 1 15 2 
24 25 26 1 
25 26 27 1 
26 2 3 1 
27 2 13 2 
28 13 14 1 
29 14 15 1 
ITEM: TIMESTEP
55100
ITEM: NUMBER OF ENTRIES
29
ITEM: BOX BOUNDS pp pp pp
-1.0000000000000000e+01 1.0000000000000000e+01
-1.0000000000000000e+01 1.0000000000000000e+01
-1.0000000000000000e+01 1.0000000000000000e+01
ITEM: ENTRIES index c_bondedatomid1 c_bondedatomid2 c_btype
1 20 21 1 
2 16 17 1 
3 16 29 2 
4 16 19 2 
5 19 20 1 
6 28 29 1 
7 11 12 1 
8 10 11 1 
9 17 18 1 
10 21 29 2 
11 29 30 1 
12 18 28 2 
13 18 20 2 
14 23 24 1 
15 5 6 1 
16 8 9 1 
17 6 7 2 
18 7 8 1 
19 4 5 1 
20 4 8 2 
21 22 23 1 
22 1 2 1 
23 1 15 2 
24 25 26 1 
25 26 27 1 
26 2 3 1 
27 2 13 2 
28 13 14 1 
29 14 15 1 
ITEM: TIMESTEP
55200
ITEM: NUMBER OF ENTRIES
29
ITEM: BOX BOUNDS pp pp pp
-1.0000000000000000e+01 1.0000000000000000e+01
-1.0000000000000000e+01 1.0000000000000000e+01
-1.0000000000000000e+01 1.0000000000000000e+01
ITEM: ENTRIES index c_bondedatomid1 c_bondedatomid2 c_btype
1 10 11 1 
2 20 21 1 
3 16 17 1 
4 16 29 2 
5 16 19 2 
6 19 20 1 
7 21 29 2 
8 29 30 1 
9 18 28 2 
10 18 20 2 
11 11 12 1 
12 28 29 1 
13 17 18 1 
14 22 23 1 
15 5 6 1 
16 8 9 1 
17 4 5 1 
18 4 8 2 
19 23 24 1 
20 6 7 2 
21 7 8 1 
22 1 2 1 
23 1 15 2 
24 25 26 1 
25 26 27 1 
26 2 3 1 
27 2 13 2 
28 14 15 1 
29 13 14 1 
ITEM: TIMESTEP
55300
ITEM: NUMBER OF ENTRIES
29
ITEM: BOX BOUNDS pp pp pp
-1.0000000000000000e+01 1.0000000000000000e+01
-1.0000000000000000e+01 1.0000000000000000e+01
-1.0000000000000000e+01 1.0000000000000000e+01
ITEM: ENTRIES index c_bondedatomid1 c_bondedatomid2 c_btype
1 10 11 1 
2 20 21 1 
3 16 17 1 
4 16 29 2 
5 16 19 2 
6 19 20 1 
7 21 29 2 
8 29 30 1 
9 18 28 2 
10 18 20 2 
11 11 12 1 
12 28 29 1 
13 17 18 1 
14 22 23 1 
15 5 6 1 
16 8 9 1 
17 4 5 1 
18 4 8 2 
19 23 24 1 
20 6 7 2 
21 7 8 1 
22 1 2 1 
23 1 15 2 
24 25 26 1 
25 26 27 1 
26 2 3 1 
27 2 13 2 
28 14 15 1 
29 13 14 1 
ITEM: TIMESTEP
55400
ITEM: NUMBER OF ENTRIES
29
ITEM: BOX BOUNDS pp pp pp
-1.0000000000000000e+01 1.0000000000000000e+01
-1.0000000000000000e+01 1.0000000000000000e+01
-1.0000000000000000e+01 1.0000000000000000e+01
ITEM: ENTRIES index c_bondedatomid1 c_bondedatomid2 c_btype
1 10 11 1 
2 20 21 1 
3 16 17 1 
4 16 29 2 
5 16 19 2 
6 19 20 1 
7 21 29 2 
8 29 30 1 
9 18 28 2 
10 18 20 2 
11 11 12 1 
12 28 29 1 
13 17 18 1 
14 22 23 1 
15 5 6 1 
16 8 9 1 
17 4 5 1 
18 4 8 2 
19 23 24 1 
20 6 7 2 
21 7 8 1 
22 1 2 1 
23 1 15 2 
24 25 26 1 
25 26 27 1 
26 2 3 1 
27 2 13 2 
28 14 15 1 
29 13 14 1 
ITEM: TIMESTEP
55500
ITEM: NUMBER OF ENTRIES
29
ITEM: BOX BOUNDS pp pp pp
-1.0000000000000000e+01 1.0000000000000000e+01
-1.0000000000000000e+01 1.0000000000000000e+01
-1.0000000000000000e+01 1.0000000000000000e+01
ITEM: ENTRIES index c_bondedatomid1 c_bondedatomid2 c_btype
1 10 11 1 
2 20 21 1 
3 16 17 1 
4 16 29 2 
5 16 19 2 
6 19 20 1 
7 21 29 2 
8 29 30 1 
9 18 28 2 
10 18 20 2 
11 11 12 1 
12 28 29 1 
13 17 18 1 
14 22 23 1 
15 5 6 1 
16 8 9 1 
17 4 5 1 
18 4 8 2 
19 23 24 1 
20 6 7 2 
21 7 8 1 
22 1 2 1 
23 1 15 2 
24 25 26 1 
25 26 27 1 
26 2 3 1 
27 2 13 2 
28 14 15 1 
29 13 14 1 
ITEM: TIMESTEP
55600
ITEM: NUMBER OF ENTRIES
29
ITEM: BOX BOUNDS pp pp pp
-1.0000000000000000e+01 1.0000000000000000e+01
-1.0000000000000000e+01 1.0000000000000000e+01
-1.0000000000000000e+01 1.0000000000000000e+01
ITEM: ENTRIES index c_bondedatomid1 c_bondedatomid2 c_btype
1 10 11 1 
2 20 21 1 
3 16 17 1 
4 16 29 2 
5 16 19 2 
6 19 20 1 
7 21 29 2 
8 29 30 1 
9 18 28 2 
10 18 20 2 
11 11 12 1 
12 28 29 1 
13 17 18 1 
14 22 23 1 
15 5 6 1 
16 8 9 1 
17 4 5 1 
18 4 8 2 
19 23 24 1 
20 6 7 2 
21 7 8 1 
22 1 2 1 
23 1 15 2 
24 25 26 1 
25 26 27 1 
26 2 3 1 
27 2 13 2 
28 14 15 1 
29 13 14 1 
ITEM: TIMESTEP
55700
ITEM: NUMBER OF ENTRIES
29
ITEM: BOX BOUNDS pp pp pp
-1.0000000000000000e+01 1.0000000000000000e+01
-1.0000000000000000e+01 1.0000000000000000e+01
-1.0000000000000000e+01 1.0000000000000000e+01
ITEM: ENTRIES index c_bondedatomid1 c_bondedatomid2 c_btype
1 10 11 1 
2 20 21 1 
3 16 17 1 
4 16 29 2 
5 16 19 2 
6 19 20 1 
7 21 29 2 
8 29 30 1 
9 18 28 2 
10 18 20 2 
11 11 12 1 
12 28 29 1 
13 17 18 1 
14 22 23 1 
15 5 6 1 
16 8 9 1 
17 4 5 1 
18 4 8 2 
19 23 24 1 
20 6 7 2 
21 7 8 1 
22 1 2 1 
23 1 15 2 
24 25 26 1 
25 26 27 1 
26 2 3 1 
27 2 13 2 
28 14 15 1 
29 13 14 1 
ITEM: TIMESTEP
55800
ITEM: NUMBER OF ENTRIES
29
ITEM: BOX BOUNDS pp pp pp
-1.0000000000000000e+01 1.0000000000000000e+01
-1.0000000000000000e+01 1.0000000000000000e+01
-1.0000000000000000e+01 1.0000000000000000e+01
ITEM: ENTRIES index c_bondedatomid1 c_bondedatomid2 c_btype
1 10 11 1 
2 20 21 1 
3 16 17 1 
4 16 29 2 
5 16 19 2 
6 19 20 1 
7 21 29 2 
8 29 30 1 
9 18 28 2 
10 18 20 2 
11 11 12 1 
12 28 29 1 
13 17 18 1 
14 22 23 1 
15 5 6 1 
16 8 9 1 
17 4 5 1 
18 4 8 2 
19 23 24 1 
20 6 7 2 
21 7 8 1 
22 1 2 1 
23 1 15 2 
24 25 26 1 
25 26 27 1 
26 2 3 1 
27 2 13 2 
28 14 15 1 
29 13 14 1 
ITEM: TIMESTEP
55900
ITEM: NUMBER OF ENTRIES
29
ITEM: BOX BOUNDS pp pp pp
-1.0000000000000000e+01 1.0000000000000000e+01
-1.0000000000000000e+01 1.0000000000000000e+01
-1.0000000000000000e+01 1.0000000000000000e+01
ITEM: ENTRIES index c_bondedatomid1 c_bondedatomid2 c_btype
1 10 11 1 
2 20 21 1 
3 16 17 1 
4 16 29 2 
5 16 19 2 
6 19 20 1 
7 21 29 2 
8 29 30 1 
9 18 28 2 
10 18 20 2 
11 11 12 1 
12 28 29 1 
13 17 18 1 
14 22 23 1 
15 5 6 1 
16 8 9 1 
17 4 5 1 
18 4 8 2 
19 23 24 1 
20 6 7 2 
21 7 8 1 
22 1 2 1 
23 1 15 2 
24 25 26 1 
25 26 27 1 
26 2 3 1 
27 2 13 2 
28 14 15 1 
29 13 14 1 
ITEM: TIMESTEP
56000
ITEM: NUMBER OF ENTRIES
29
ITEM: BOX BOUNDS pp pp pp
-1.0000000000000000e+01 1.0000000000000000e+01
-1.0000000000000000e+01 1.0000000000000000e+01
-1.0000000000000000e+01 1.0000000000000000e+01
ITEM: ENTRIES index c_bondedatomid1 c_bondedatomid2 c_btype
1 10 11 1 
2 20 21 1 
3 16 17 1 
4 16 29 2 
5 16 19 2 
6 19 20 1 
7 21 29 2 
8 29 30 1 
9 18 28 2 
10 18 20 2 
11 11 12 1 
12 28 29 1 
13 17 18 1 
14 22 23 1 
15 5 6 1 
16 8 9 1 
17 4 5 1 
18 4 8 2 
19 23 24 1 
20 6 7 2 
21 7 8 1 
22 1 2 1 
23 1 15 2 
24 25 26 1 
25 26 27 1 
26 2 3 1 
27 2 13 2 
28 14 15 1 
29 13 14 1 
ITEM: TIMESTEP
56100
ITEM: NUMBER OF ENTRIES
29
ITEM: BOX BOUNDS pp pp pp
-1.0000000000000000e+01 1.0000000000000000e+01
-1.0000000000000000e+01 1.0000000000000000e+01
-1.0000000000000000e+01 1.0000000000000000e+01
ITEM: ENTRIES index c_bondedatomid1 c_bondedatomid2 c_btype
1 21 29 2 
2 18 28 2 
3 18 20 2 
4 10 11 1 
5 20 21 1 
6 19 20 1 
7 29 30 1 
8 17 18 1 
9 11 12 1 
10 16 17 1 
11 16 29 2 
12 16 19 2 
13 28 29 1 
14 22 23 1 
15 5 6 1 
16 4 5 1 
17 4 8 2 
18 23 24 1 
19 8 9 1 
20 6 7 2 
21 7 8 1 
22 1 2 1 
23 1 15 2 
24 25 26 1 
25 26 27 1 
26 2 3 1 
27 2 13 2 
28 14 15 1 
29 13 14 1 
ITEM: TIMESTEP
56200
ITEM: NUMBER OF ENTRIES
29
ITEM: BOX BOUNDS pp pp pp
-1.0000000000000000e+01 1.0000000000000000e+01
-1.0000000000000000e+01 1.0000000000000000e+01
-1.0000000000000000e+01 1.0000000000000000e+01
ITEM: ENTRIES index c_bondedatomid1 c_bondedatomid2 c_btype
1 21 29 2 
2 18 28 2 
3 18 20 2 
4 10 11 1 
5 20 21 1 
6 19 20 1 
7 29 30 1 
8 17 18 1 
9 11 12 1 
10 16 17 1 
11 16 29 2 
12 16 19 2 
13 28 29 1 
14 22 23 1 
15 5 6 1 
16 4 5 1 
17 4 8 2 
18 23 24 1 
19 8 9 1 
20 6 7 2 
21 7 8 1 
22 1 2 1 
23 1 15 2 
24 25 26 1 
25 26 27 1 
26 2 3 1 
27 2 13 2 
28 14 15 1 
29 13 14 1 
ITEM: TIMESTEP
56300
ITEM: NUMBER OF ENTRIES
29
ITEM: BOX BOUNDS pp pp pp
-1.0000000000000000e+01 1.0000000000000000e+01
-1.0000000000000000e+01 1.0000000000000000e+01
-1.0000000000000000e+01 1.0000000000000000e+01
ITEM: ENTRIES index c_bondedatomid1 c_bondedatomid2 c_btype
1 21 29 2 
2 18 28 2 
3 18 20 2 
4 10 11 1 
5 20 21 1 
6 19 20 1 
7 29 30 1 
8 17 18 1 
9 11 12 1 
10 16 17 1 
11 16 29 2 
12 16 19 2 
13 28 29 1 
14 22 23 1 
15 5 6 1 
16 4 5 1 
17 4 8 2 
18 23 24 1 
19 8 9 1 
20 6 7 2 
21 7 8 1 
22 1 2 1 
23 1 15 2 
24 25 26 1 
25 26 27 1 
26 2 3 1 
27 2 13 2 
28 14 15 1 
29 13 14 1 
ITEM: TIMESTEP
56400
ITEM: NUMBER OF ENTRIES
29
ITEM: BOX BOUNDS pp pp pp
-1.0000000000000000e+01 1.0000000000000000e+01
-1.0000000000000000e+01 1.0000000000000000e+01
-1.0000000000000000e+01 1.0000000000000000e+01
ITEM: ENTRIES index c_bondedatomid1 c_bondedatomid2 c_btype
1 21 29 2 
2 18 28 2 
3 18 20 2 
4 10 11 1 
5 20 21 1 
6 19 20 1 
7 29 30 1 
8 17 18 1 
9 11 12 1 
10 16 17 1 
11 16 29 2 
12 16 19 2 
13 28 29 1 
14 22 23 1 
15 5 6 1 
16 4 5 1 
17 4 8 2 
18 23 24 1 
19 8 9 1 
20 6 7 2 
21 7 8 1 
22 1 2 1 
23 1 15 2 
24 25 26 1 
25 26 27 1 
26 2 3 1 
27 2 13 2 
28 14 15 1 
29 13 14 1 
ITEM: TIMESTEP
56500
ITEM: NUMBER OF ENTRIES
29
ITEM: BOX BOUNDS pp pp pp
-1.0000000000000000e+01 1.0000000000000000e+01
-1.0000000000000000e+01 1.0000000000000000e+01
-1.0000000000000000e+01 1.0000000000000000e+01
ITEM: ENTRIES index c_bondedatomid1 c_bondedatomid2 c_btype
1 21 29 2 
2 18 28 2 
3 18 20 2 
4 10 11 1 
5 20 21 1 
6 19 20 1 
7 29 30 1 
8 17 18 1 
9 11 12 1 
10 16 17 1 
11 16 29 2 
12 16 19 2 
13 28 29 1 
14 22 23 1 
15 5 6 1 
16 4 5 1 
17 4 8 2 
18 23 24 1 
19 8 9 1 
20 6 7 2 
21 7 8 1 
22 1 2 1 
23 1 15 2 
24 25 26 1 
25 26 27 1 
26 2 3 1 
27 2 13 2 
28 14 15 1 
29 13 14 1 
ITEM: TIMESTEP
56600
ITEM: NUMBER OF ENTRIES
29
ITEM: BOX BOUNDS pp pp pp
-1.0000000000000000e+01 1.0000000000000000e+01
-1.0000000000000000e+01 1.0000000000000000e+01
-1.0000000000000000e+01 1.0000000000000000e+01
ITEM: ENTRIES index c_bondedatomid1 c_bondedatomid2 c_btype
1 21 29 2 
2 18 28 2 
3 18 20 2 
4 10 11 1 
5 20 21 1 
6 19 20 1 
7 29 30 1 
8 17 18 1 
9 11 12 1 
10 16 17 1 
11 16 29 2 
12 16 19 2 
13 28 29 1 
14 22 23 1 
15 5 6 1 
16 4 5 1 
17 4 8 2 
18 23 24 1 
19 8 9 1 
20 6 7 2 
21 7 8 1 
22 1 2 1 
23 1 15 2 
24 25 26 1 
25 26 27 1 
26 2 3 1 
27 2 13 2 
28 14 15 1 
29 13 14 1 
ITEM: TIMESTEP
56700
ITEM: NUMBER OF ENTRIES
29
ITEM: BOX BOUNDS pp pp pp
-1.0000000000000000e+01 1.0000000000000000e+01
-1.0000000000000000e+01 1.0000000000000000e+01
-1.0000000000000000e+01 1.0000000000000000e+01
ITEM: ENTRIES index c_bondedatomid1 c_bondedatomid2 c_btype
1 21 29 2 
2 18 28 2 
3 18 20 2 
4 10 11 1 
5 20 21 1 
6 19 20 1 
7 29 30 1 
8 17 18 1 
9 11 12 1 
10 16 17 1 
11 16 29 2 
12 16 19 2 
13 28 29 1 
14 22 23 1 
15 5 6 1 
16 4 5 1 
17 4 8 2 
18 23 24 1 
19 8 9 1 
20 6 7 2 
21 7 8 1 
22 1 2 1 
23 1 15 2 
24 25 26 1 
25 26 27 1 
26 2 3 1 
27 2 13 2 
28 14 15 1 
29 13 14 1 
ITEM: TIMESTEP
56800
ITEM: NUMBER OF ENTRIES
29
ITEM: BOX BOUNDS pp pp pp
-1.0000000000000000e+01 1.0000000000000000e+01
-1.0000000000000000e+01 1.0000000000000000e+01
-1.0000000000000000e+01 1.0000000000000000e+01
ITEM: ENTRIES index c_bondedatomid1 c_bondedatomid2 c_btype
1 21 29 2 
2 18 28 2 
3 18 20 2 
4 10 11 1 
5 20 21 1 
6 19 20 1 
7 29 30 1 
8 17 18 1 
9 11 12 1 
10 16 17 1 
11 16 29 2 
12 16 19 2 
13 28 29 1 
14 22 23 1 
15 5 6 1 
16 4 5 1 
17 4 8 2 
18 23 24 1 
19 8 9 1 
20 6 7 2 
21 7 8 1 
22 1 2 1 
23 1 15 2 
24 25 26 1 
25 26 27 1 
26 2 3 1 
27 2 13 2 
28 14 15 1 
29 13 14 1 
ITEM: TIMESTEP
56900
ITEM: NUMBER OF ENTRIES
29
ITEM: BOX BOUNDS pp pp pp
-1.0000000000000000e+01 1.0000000000000000e+01
-1.0000000000000000e+01 1.0000000000000000e+01
-1.0000000000000000e+01 1.0000000000000000e+01
ITEM: ENTRIES index c_bondedatomid1 c_bondedatomid2 c_btype
1 21 29 2 
2 18 28 2 
3 18 20 2 
4 10 11 1 
5 20 21 1 
6 19 20 1 
7 29 30 1 
8 17 18 1 
9 11 12 1 
10 16 17 1 
11 16 29 2 
12 16 19 2 
13 28 29 1 
14 22 23 1 
15 5 6 1 
16 4 5 1 
17 4 8 2 
18 23 24 1 
19 8 9 1 
20 6 7 2 
21 7 8 1 
22 1 2 1 
23 1 15 2 
24 25 26 1 
25 26 27 1 
26 2 3 1 
27 2 13 2 
28 14 15 1 
29 13 14 1 
ITEM: TIMESTEP
57000
ITEM: NUMBER OF ENTRIES
29
ITEM: BOX BOUNDS pp pp pp
-1.0000000000000000e+01 1.0000000000000000e+01
-1.0000000000000000e+01 1.0000000000000000e+01
-1.0000000000000000e+01 1.0000000000000000e+01
ITEM: ENTRIES index c_bondedatomid1 c_bondedatomid2 c_btype
1 21 29 2 
2 18 28 2 
3 18 20 2 
4 10 11 1 
5 20 21 1 
6 19 20 1 
7 29 30 1 
8 17 18 1 
9 11 12 1 
10 16 17 1 
11 16 29 2 
12 16 19 2 
13 28 29 1 
14 22 23 1 
15 5 6 1 
16 4 5 1 
17 4 8 2 
18 23 24 1 
19 8 9 1 
20 6 7 2 
21 7 8 1 
22 1 2 1 
23 1 15 2 
24 25 26 1 
25 26 27 1 
26 2 3 1 
27 2 13 2 
28 14 15 1 
29 13 14 1 
ITEM: TIMESTEP
57100
ITEM: NUMBER OF ENTRIES
29
ITEM: BOX BOUNDS pp pp pp
-1.0000000000000000e+01 1.0000000000000000e+01
-1.0000000000000000e+01 1.0000000000000000e+01
-1.0000000000000000e+01 1.0000000000000000e+01
ITEM: ENTRIES index c_bondedatomid1 c_bondedatomid2 c_btype
1 21 29 2 
2 18 28 2 
3 18 20 2 
4 10 11 1 
5 20 21 1 
6 19 20 1 
7 29 30 1 
8 17 18 1 
9 11 12 1 
10 16 17 1 
11 16 29 2 
12 16 19 2 
13 28 29 1 
14 22 23 1 
15 5 6 1 
16 4 5 1 
17 4 8 2 
18 23 24 1 
19 8 9 1 
20 6 7 2 
21 7 8 1 
22 1 2 1 
23 1 15 2 
24 25 26 1 
25 26 27 1 
26 2 3 1 
27 2 13 2 
28 14 15 1 
29 13 14 1 
ITEM: TIMESTEP
57200
ITEM: NUMBER OF ENTRIES
29
ITEM: BOX BOUNDS pp pp pp
-1.0000000000000000e+01 1.0000000000000000e+01
-1.0000000000000000e+01 1.0000000000000000e+01
-1.0000000000000000e+01 1.0000000000000000e+01
ITEM: ENTRIES index c_bondedatomid1 c_bondedatomid2 c_btype
1 21 29 2 
2 18 28 2 
3 18 20 2 
4 20 21 1 
5 19 20 1 
6 29 30 1 
7 16 17 1 
8 16 29 2 
9 16 19 2 
10 10 11 1 
11 11 12 1 
12 17 18 1 
13 28 29 1 
14 4 5 1 
15 4 8 2 
16 6 7 2 
17 22 23 1 
18 23 24 1 
19 5 6 1 
20 8 9 1 
21 7 8 1 
22 25 26 1 
23 26 27 1 
24 1 2 1 
25 1 15 2 
26 2 3 1 
27 2 13 2 
28 13 14 1 
29 14 15 1 
ITEM: TIMESTEP
57300
ITEM: NUMBER OF ENTRIES
29
ITEM: BOX BOUNDS pp pp pp
-1.0000000000000000e+01 1.0000000000000000e+01
-1.0000000000000000e+01 1.0000000000000000e+01
-1.0000000000000000e+01 1.0000000000000000e+01
ITEM: ENTRIES index c_bondedatomid1 c_bondedatomid2 c_btype
1 21 29 2 
2 18 28 2 
3 18 20 2 
4 20 21 1 
5 19 20 1 
6 29 30 1 
7 16 17 1 
8 16 29 2 
9 16 19 2 
10 10 11 1 
11 11 12 1 
12 17 18 1 
13 28 29 1 
14 4 5 1 
15 4 8 2 
16 6 7 2 
17 22 23 1 
18 23 24 1 
19 5 6 1 
20 8 9 1 
21 7 8 1 
22 25 26 1 
23 26 27 1 
24 1 2 1 
25 1 15 2 
26 2 3 1 
27 2 13 2 
28 13 14 1 
29 14 15 1 
ITEM: TIMESTEP
57400
ITEM: NUMBER OF ENTRIES
29
ITEM: BOX BOUNDS pp pp pp
-1.0000000000000000e+01 1.0000000000000000e+01
-1.0000000000000000e+01 1.0000000000000000e+01
-1.0000000000000000e+01 1.0000000000000000e+01
ITEM: ENTRIES index c_bondedatomid1 c_bondedatomid2 c_btype
1 21 29 2 
2 18 28 2 
3 18 20 2 
4 20 21 1 
5 19 20 1 
6 29 30 1 
7 16 17 1 
8 16 29 2 
9 16 19 2 
10 10 11 1 
11 11 12 1 
12 17 18 1 
13 28 29 1 
14 4 5 1 
15 4 8 2 
16 6 7 2 
17 22 23 1 
18 23 24 1 
19 5 6 1 
20 8 9 1 
21 7 8 1 
22 25 26 1 
23 26 27 1 
24 1 2 1 
25 1 15 2 
26 2 3 1 
27 2 13 2 
28 13 14 1 
29 14 15 1 
ITEM: TIMESTEP
57500
ITEM: NUMBER OF ENTRIES
29
ITEM: BOX BOUNDS pp pp pp
-1.0000000000000000e+01 1.0000000000000000e+01
-1.0000000000000000e+01 1.0000000000000000e+01
-1.0000000000000000e+01 1.0000000000000000e+01
ITEM: ENTRIES index c_bondedatomid1 c_bondedatomid2 c_btype
1 21 29 2 
2 18 28 2 
3 18 20 2 
4 20 21 1 
5 19 20 1 
6 29 30 1 
7 16 17 1 
8 16 29 2 
9 16 19 2 
10 10 11 1 
11 11 12 1 
12 17 18 1 
13 28 29 1 
14 4 5 1 
15 4 8 2 
16 6 7 2 
17 22 23 1 
18 23 24 1 
19 5 6 1 
20 8 9 1 
21 7 8 1 
22 25 26 1 
23 26 27 1 
24 1 2 1 
25 1 15 2 
26 2 3 1 
27 2 13 2 
28 13 14 1 
29 14 15 1 
ITEM: TIMESTEP
57600
ITEM: NUMBER OF ENTRIES
29
ITEM: BOX BOUNDS pp pp pp
-1.0000000000000000e+01 1.0000000000000000e+01
-1.0000000000000000e+01 1.0000000000000000e+01
-1.0000000000000000e+01 1.0000000000000000e+01
ITEM: ENTRIES index c_bondedatomid1 c_bondedatomid2 c_btype
1 21 29 2 
2 18 28 2 
3 18 20 2 
4 20 21 1 
5 19 20 1 
6 29 30 1 
7 16 17 1 
8 16 29 2 
9 16 19 2 
10 10 11 1 
11 11 12 1 
12 17 18 1 
13 28 29 1 
14 4 5 1 
15 4 8 2 
16 6 7 2 
17 22 23 1 
18 23 24 1 
19 5 6 1 
20 8 9 1 
21 7 8 1 
22 25 26 1 
23 26 27 1 
24 1 2 1 
25 1 15 2 
26 2 3 1 
27 2 13 2 
28 13 14 1 
29 14 15 1 
ITEM: TIMESTEP
57700
ITEM: NUMBER OF ENTRIES
29
ITEM: BOX BOUNDS pp pp pp
-1.0000000000000000e+01 1.0000000000000000e+01
-1.0000000000000000e+01 1.0000000000000000e+01
-1.0000000000000000e+01 1.0000000000000000e+01
ITEM: ENTRIES index c_bondedatomid1 c_bondedatomid2 c_btype
1 21 29 2 
2 18 28 2 
3 18 20 2 
4 20 21 1 
5 19 20 1 
6 29 30 1 
7 16 17 1 
8 16 29 2 
9 16 19 2 
10 10 11 1 
11 11 12 1 
12 17 18 1 
13 28 29 1 
14 4 5 1 
15 4 8 2 
16 6 7 2 
17 22 23 1 
18 23 24 1 
19 5 6 1 
20 8 9 1 
21 7 8 1 
22 25 26 1 
23 26 27 1 
24 1 2 1 
25 1 15 2 
26 2 3 1 
27 2 13 2 
28 13 14 1 
29 14 15 1 
ITEM: TIMESTEP
57800
ITEM: NUMBER OF ENTRIES
29
ITEM: BOX BOUNDS pp pp pp
-1.0000000000000000e+01 1.0000000000000000e+01
-1.0000000000000000e+01 1.0000000000000000e+01
-1.0000000000000000e+01 1.0000000000000000e+01
ITEM: ENTRIES index c_bondedatomid1 c_bondedatomid2 c_btype
1 21 29 2 
2 18 28 2 
3 18 20 2 
4 20 21 1 
5 19 20 1 
6 29 30 1 
7 16 17 1 
8 16 29 2 
9 16 19 2 
10 10 11 1 
11 11 12 1 
12 17 18 1 
13 28 29 1 
14 4 5 1 
15 4 8 2 
16 6 7 2 
17 22 23 1 
18 23 24 1 
19 5 6 1 
20 8 9 1 
21 7 8 1 
22 25 26 1 
23 26 27 1 
24 1 2 1 
25 1 15 2 
26 2 3 1 
27 2 13 2 
28 13 14 1 
29 14 15 1 
ITEM: TIMESTEP
57900
ITEM: NUMBER OF ENTRIES
29
ITEM: BOX BOUNDS pp pp pp
-1.0000000000000000e+01 1.0000000000000000e+01
-1.0000000000000000e+01 1.0000000000000000e+01
-1.0000000000000000e+01 1.0000000000000000e+01
ITEM: ENTRIES index c_bondedatomid1 c_bondedatomid2 c_btype
1 21 29 2 
2 18 28 2 
3 18 20 2 
4 20 21 1 
5 19 20 1 
6 29 30 1 
7 16 17 1 
8 16 29 2 
9 16 19 2 
10 10 11 1 
11 11 12 1 
12 17 18 1 
13 28 29 1 
14 4 5 1 
15 4 8 2 
16 6 7 2 
17 22 23 1 
18 23 24 1 
19 5 6 1 
20 8 9 1 
21 7 8 1 
22 25 26 1 
23 26 27 1 
24 1 2 1 
25 1 15 2 
26 2 3 1 
27 2 13 2 
28 13 14 1 
29 14 15 1 
ITEM: TIMESTEP
58000
ITEM: NUMBER OF ENTRIES
29
ITEM: BOX BOUNDS pp pp pp
-1.0000000000000000e+01 1.0000000000000000e+01
-1.0000000000000000e+01 1.0000000000000000e+01
-1.0000000000000000e+01 1.0000000000000000e+01
ITEM: ENTRIES index c_bondedatomid1 c_bondedatomid2 c_btype
1 21 29 2 
2 18 28 2 
3 18 20 2 
4 20 21 1 
5 19 20 1 
6 29 30 1 
7 16 17 1 
8 16 29 2 
9 16 19 2 
10 10 11 1 
11 11 12 1 
12 17 18 1 
13 28 29 1 
14 4 5 1 
15 4 8 2 
16 6 7 2 
17 22 23 1 
18 23 24 1 
19 5 6 1 
20 8 9 1 
21 7 8 1 
22 25 26 1 
23 26 27 1 
24 1 2 1 
25 1 15 2 
26 2 3 1 
27 2 13 2 
28 13 14 1 
29 14 15 1 
ITEM: TIMESTEP
58100
ITEM: NUMBER OF ENTRIES
29
ITEM: BOX BOUNDS pp pp pp
-1.0000000000000000e+01 1.0000000000000000e+01
-1.0000000000000000e+01 1.0000000000000000e+01
-1.0000000000000000e+01 1.0000000000000000e+01
ITEM: ENTRIES index c_bondedatomid1 c_bondedatomid2 c_btype
1 21 29 2 
2 18 28 2 
3 18 20 2 
4 20 21 1 
5 19 20 1 
6 29 30 1 
7 16 17 1 
8 16 29 2 
9 16 19 2 
10 10 11 1 
11 11 12 1 
12 17 18 1 
13 28 29 1 
14 4 5 1 
15 4 8 2 
16 6 7 2 
17 22 23 1 
18 23 24 1 
19 5 6 1 
20 8 9 1 
21 7 8 1 
22 25 26 1 
23 26 27 1 
24 1 2 1 
25 1 15 2 
26 2 3 1 
27 2 13 2 
28 13 14 1 
29 14 15 1 
ITEM: TIMESTEP
58200
ITEM: NUMBER OF ENTRIES
29
ITEM: BOX BOUNDS pp pp pp
-1.0000000000000000e+01 1.0000000000000000e+01
-1.0000000000000000e+01 1.0000000000000000e+01
-1.0000000000000000e+01 1.0000000000000000e+01
ITEM: ENTRIES index c_bondedatomid1 c_bondedatomid2 c_btype
1 21 29 2 
2 18 28 2 
3 18 20 2 
4 20 21 1 
5 19 20 1 
6 16 17 1 
7 16 29 2 
8 16 19 2 
9 17 18 1 
10 11 12 1 
11 29 30 1 
12 28 29 1 
13 10 11 1 
14 6 7 2 
15 22 23 1 
16 23 24 1 
17 4 5 1 
18 4 8 2 
19 5 6 1 
20 7 8 1 
21 8 9 1 
22 25 26 1 
23 26 27 1 
24 1 2 1 
25 1 15 2 
26 2 3 1 
27 2 13 2 
28 14 15 1 
29 13 14 1 
ITEM: TIMESTEP
58300
ITEM: NUMBER OF ENTRIES
29
ITEM: BOX BOUNDS pp pp pp
-1.0000000000000000e+01 1.0000000000000000e+01
-1.0000000000000000e+01 1.0000000000000000e+01
-1.0000000000000000e+01 1.0000000000000000e+01
ITEM: ENTRIES index c_bondedatomid1 c_bondedatomid2 c_btype
1 21 29 2 
2 18 28 2 
3 18 20 2 
4 20 21 1 
5 19 20 1 
6 16 17 1 
7 16 29 2 
8 16 19 2 
9 17 18 1 
10 11 12 1 
11 29 30 1 
12 28 29 1 
13 10 11 1 
14 6 7 2 
15 22 23 1 
16 23 24 1 
17 4 5 1 
18 4 8 2 
19 5 6 1 
20 7 8 1 
21 8 9 1 
22 25 26 1 
23 26 27 1 
24 1 2 1 
25 1 15 2 
26 2 3 1 
27 2 13 2 
28 14 15 1 
29 13 14 1 
ITEM: TIMESTEP
58400
ITEM: NUMBER OF ENTRIES
29
ITEM: BOX BOUNDS pp pp pp
-1.0000000000000000e+01 1.0000000000000000e+01
-1.0000000000000000e+01 1.0000000000000000e+01
-1.0000000000000000e+01 1.0000000000000000e+01
ITEM: ENTRIES index c_bondedatomid1 c_bondedatomid2 c_btype
1 21 29 2 
2 18 28 2 
3 18 20 2 
4 20 21 1 
5 19 20 1 
6 16 17 1 
7 16 29 2 
8 16 19 2 
9 17 18 1 
10 11 12 1 
11 29 30 1 
12 28 29 1 
13 10 11 1 
14 6 7 2 
15 22 23 1 
16 23 24 1 
17 4 5 1 
18 4 8 2 
19 5 6 1 
20 7 8 1 
21 8 9 1 
22 25 26 1 
23 26 27 1 
24 1 2 1 
25 1 15 2 
26 2 3 1 
27 2 13 2 
28 14 15 1 
29 13 14 1 
ITEM: TIMESTEP
58500
ITEM: NUMBER OF ENTRIES
29
ITEM: BOX BOUNDS pp pp pp
-1.0000000000000000e+01 1.0000000000000000e+01
-1.0000000000000000e+01 1.0000000000000000e+01
-1.0000000000000000e+01 1.0000000000000000e+01
ITEM: ENTRIES index c_bondedatomid1 c_bondedatomid2 c_btype
1 21 29 2 
2 18 28 2 
3 18 20 2 
4 20 21 1 
5 19 20 1 
6 16 17 1 
7 16 29 2 
8 16 19 2 
9 17 18 1 
10 11 12 1 
11 29 30 1 
12 28 29 1 
13 10 11 1 
14 6 7 2 
15 22 23 1 
16 23 24 1 
17 4 5 1 
18 4 8 2 
19 5 6 1 
20 7 8 1 
21 8 9 1 
22 25 26 1 
23 26 27 1 
24 1 2 1 
25 1 15 2 
26 2 3 1 
27 2 13 2 
28 14 15 1 
29 13 14 1 
ITEM: TIMESTEP
58600
ITEM: NUMBER OF ENTRIES
29
ITEM: BOX BOUNDS pp pp pp
-1.0000000000000000e+01 1.0000000000000000e+01
-1.0000000000000000e+01 1.0000000000000000e+01
-1.0000000000000000e+01 1.0000000000000000e+01
ITEM: ENTRIES index c_bondedatomid1 c_bondedatomid2 c_btype
1 21 29 2 
2 18 28 2 
3 18 20 2 
4 20 21 1 
5 19 20 1 
6 16 17 1 
7 16 29 2 
8 16 19 2 
9 17 18 1 
10 11 12 1 
11 29 30 1 
12 28 29 1 
13 10 11 1 
14 6 7 2 
15 22 23 1 
16 23 24 1 
17 4 5 1 
18 4 8 2 
19 5 6 1 
20 7 8 1 
21 8 9 1 
22 25 26 1 
23 26 27 1 
24 1 2 1 
25 1 15 2 
26 2 3 1 
27 2 13 2 
28 14 15 1 
29 13 14 1 
ITEM: TIMESTEP
58700
ITEM: NUMBER OF ENTRIES
29
ITEM: BOX BOUNDS pp pp pp
-1.0000000000000000e+01 1.0000000000000000e+01
-1.0000000000000000e+01 1.0000000000000000e+01
-1.0000000000000000e+01 1.0000000000000000e+01
ITEM: ENTRIES index c_bondedatomid1 c_bondedatomid2 c_btype
1 21 29 2 
2 18 28 2 
3 18 20 2 
4 20 21 1 
5 19 20 1 
6 16 17 1 
7 16 29 2 
8 16 19 2 
9 17 18 1 
10 11 12 1 
11 29 30 1 
12 28 29 1 
13 10 11 1 
14 6 7 2 
15 22 23 1 
16 23 24 1 
17 4 5 1 
18 4 8 2 
19 5 6 1 
20 7 8 1 
21 8 9 1 
22 25 26 1 
23 26 27 1 
24 1 2 1 
25 1 15 2 
26 2 3 1 
27 2 13 2 
28 14 15 1 
29 13 14 1 
ITEM: TIMESTEP
58800
ITEM: NUMBER OF ENTRIES
29
ITEM: BOX BOUNDS pp pp pp
-1.0000000000000000e+01 1.0000000000000000e+01
-1.0000000000000000e+01 1.0000000000000000e+01
-1.0000000000000000e+01 1.0000000000000000e+01
ITEM: ENTRIES index c_bondedatomid1 c_bondedatomid2 c_btype
1 21 29 2 
2 18 28 2 
3 18 20 2 
4 20 21 1 
5 19 20 1 
6 16 17 1 
7 16 29 2 
8 16 19 2 
9 17 18 1 
10 11 12 1 
11 29 30 1 
12 28 29 1 
13 10 11 1 
14 6 7 2 
15 22 23 1 
16 23 24 1 
17 4 5 1 
18 4 8 2 
19 5 6 1 
20 7 8 1 
21 8 9 1 
22 25 26 1 
23 26 27 1 
24 1 2 1 
25 1 15 2 
26 2 3 1 
27 2 13 2 
28 14 15 1 
29 13 14 1 
ITEM: TIMESTEP
58900
ITEM: NUMBER OF ENTRIES
29
ITEM: BOX BOUNDS pp pp pp
-1.0000000000000000e+01 1.0000000000000000e+01
-1.0000000000000000e+01 1.0000000000000000e+01
-1.0000000000000000e+01 1.0000000000000000e+01
ITEM: ENTRIES index c_bondedatomid1 c_bondedatomid2 c_btype
1 21 29 2 
2 18 28 2 
3 18 20 2 
4 20 21 1 
5 19 20 1 
6 16 17 1 
7 16 29 2 
8 16 19 2 
9 17 18 1 
10 11 12 1 
11 29 30 1 
12 28 29 1 
13 10 11 1 
14 6 7 2 
15 22 23 1 
16 23 24 1 
17 4 5 1 
18 4 8 2 
19 5 6 1 
20 7 8 1 
21 8 9 1 
22 25 26 1 
23 26 27 1 
24 1 2 1 
25 1 15 2 
26 2 3 1 
27 2 13 2 
28 14 15 1 
29 13 14 1 
ITEM: TIMESTEP
59000
ITEM: NUMBER OF ENTRIES
29
ITEM: BOX BOUNDS pp pp pp
-1.0000000000000000e+01 1.0000000000000000e+01
-1.0000000000000000e+01 1.0000000000000000e+01
-1.0000000000000000e+01 1.0000000000000000e+01
ITEM: ENTRIES index c_bondedatomid1 c_bondedatomid2 c_btype
1 21 29 2 
2 18 28 2 
3 18 20 2 
4 20 21 1 
5 19 20 1 
6 16 17 1 
7 16 29 2 
8 16 19 2 
9 17 18 1 
10 11 12 1 
11 29 30 1 
12 28 29 1 
13 10 11 1 
14 6 7 2 
15 22 23 1 
16 23 24 1 
17 4 5 1 
18 4 8 2 
19 5 6 1 
20 7 8 1 
21 8 9 1 
22 25 26 1 
23 26 27 1 
24 1 2 1 
25 1 15 2 
26 2 3 1 
27 2 13 2 
28 14 15 1 
29 13 14 1 
ITEM: TIMESTEP
59100
ITEM: NUMBER OF ENTRIES
29
ITEM: BOX BOUNDS pp pp pp
-1.0000000000000000e+01 1.0000000000000000e+01
-1.0000000000000000e+01 1.0000000000000000e+01
-1.0000000000000000e+01 1.0000000000000000e+01
ITEM: ENTRIES index c_bondedatomid1 c_bondedatomid2 c_btype
1 19 20 1 
2 18 28 2 
3 18 20 2 
4 20 21 1 
5 16 17 1 
6 16 29 2 
7 16 19 2 
8 17 18 1 
9 29 30 1 
10 5 6 1 
11 21 29 2 
12 28 29 1 
13 11 12 1 
14 10 11 1 
15 4 5 1 
16 4 8 2 
17 23 24 1 
18 22 23 1 
19 6 7 2 
20 7 8 1 
21 8 9 1 
22 25 26 1 
23 26 27 1 
24 2 3 1 
25 2 13 2 
26 14 15 1 
27 13 14 1 
28 1 2 1 
29 1 15 2 
ITEM: TIMESTEP
59200
ITEM: NUMBER OF ENTRIES
29
ITEM: BOX BOUNDS pp pp pp
-1.0000000000000000e+01 1.0000000000000000e+01
-1.0000000000000000e+01 1.0000000000000000e+01
-1.0000000000000000e+01 1.0000000000000000e+01
ITEM: ENTRIES index c_bondedatomid1 c_bondedatomid2 c_btype
1 19 20 1 
2 18 28 2 
3 18 20 2 
4 20 21 1 
5 16 17 1 
6 16 29 2 
7 16 19 2 
8 17 18 1 
9 29 30 1 
10 5 6 1 
11 21 29 2 
12 28 29 1 
13 11 12 1 
14 10 11 1 
15 4 5 1 
16 4 8 2 
17 23 24 1 
18 22 23 1 
19 6 7 2 
20 7 8 1 
21 8 9 1 
22 25 26 1 
23 26 27 1 
24 2 3 1 
25 2 13 2 
26 14 15 1 
27 13 14 1 
28 1 2 1 
29 1 15 2 
ITEM: TIMESTEP
59300
ITEM: NUMBER OF ENTRIES
29
ITEM: BOX BOUNDS pp pp pp
-1.0000000000000000e+01 1.0000000000000000e+01
-1.0000000000000000e+01 1.0000000000000000e+01
-1.0000000000000000e+01 1.0000000000000000e+01
ITEM: ENTRIES index c_bondedatomid1 c_bondedatomid2 c_btype
1 19 20 1 
2 18 28 2 
3 18 20 2 
4 20 21 1 
5 16 17 1 
6 16 29 2 
7 16 19 2 
8 17 18 1 
9 29 30 1 
10 5 6 1 
11 21 29 2 
12 28 29 1 
13 11 12 1 
14 10 11 1 
15 4 5 1 
16 4 8 2 
17 23 24 1 
18 22 23 1 
19 6 7 2 
20 7 8 1 
21 8 9 1 
22 25 26 1 
23 26 27 1 
24 2 3 1 
25 2 13 2 
26 14 15 1 
27 13 14 1 
28 1 2 1 
29 1 15 2 
ITEM: TIMESTEP
59400
ITEM: NUMBER OF ENTRIES
29
ITEM: BOX BOUNDS pp pp pp
-1.0000000000000000e+01 1.0000000000000000e+01
-1.0000000000000000e+01 1.0000000000000000e+01
-1.0000000000000000e+01 1.0000000000000000e+01
ITEM: ENTRIES index c_bondedatomid1 c_bondedatomid2 c_btype
1 19 20 1 
2 18 28 2 
3 18 20 2 
4 20 21 1 
5 16 17 1 
6 16 29 2 
7 16 19 2 
8 17 18 1 
9 29 30 1 
10 5 6 1 
11 21 29 2 
12 28 29 1 
13 11 12 1 
14 10 11 1 
15 4 5 1 
16 4 8 2 
17 23 24 1 
18 22 23 1 
19 6 7 2 
20 7 8 1 
21 8 9 1 
22 25 26 1 
23 26 27 1 
24 2 3 1 
25 2 13 2 
26 14 15 1 
27 13 14 1 
28 1 2 1 
29 1 15 2 
ITEM: TIMESTEP
59500
ITEM: NUMBER OF ENTRIES
29
ITEM: BOX BOUNDS pp pp pp
-1.0000000000000000e+01 1.0000000000000000e+01
-1.0000000000000000e+01 1.0000000000000000e+01
-1.0000000000000000e+01 1.0000000000000000e+01
ITEM: ENTRIES index c_bondedatomid1 c_bondedatomid2 c_btype
1 19 20 1 
2 18 28 2 
3 18 20 2 
4 20 21 1 
5 16 17 1 
6 16 29 2 
7 16 19 2 
8 17 18 1 
9 29 30 1 
10 5 6 1 
11 21 29 2 
12 28 29 1 
13 11 12 1 
14 10 11 1 
15 4 5 1 
16 4 8 2 
17 23 24 1 
18 22 23 1 
19 6 7 2 
20 7 8 1 
21 8 9 1 
22 25 26 1 
23 26 27 1 
24 2 3 1 
25 2 13 2 
26 14 15 1 
27 13 14 1 
28 1 2 1 
29 1 15 2 
ITEM: TIMESTEP
59600
ITEM: NUMBER OF ENTRIES
29
ITEM: BOX BOUNDS pp pp pp
-1.0000000000000000e+01 1.0000000000000000e+01
-1.0000000000000000e+01 1.0000000000000000e+01
-1.0000000000000000e+01 1.0000000000000000e+01
ITEM: ENTRIES index c_bondedatomid1 c_bondedatomid2 c_btype
1 19 20 1 
2 18 28 2 
3 18 20 2 
4 20 21 1 
5 16 17 1 
6 16 29 2 
7 16 19 2 
8 17 18 1 
9 29 30 1 
10 5 6 1 
11 21 29 2 
12 28 29 1 
13 11 12 1 
14 10 11 1 
15 4 5 1 
16 4 8 2 
17 23 24 1 
18 22 23 1 
19 6 7 2 
20 7 8 1 
21 8 9 1 
22 25 26 1 
23 26 27 1 
24 2 3 1 
25 2 13 2 
26 14 15 1 
27 13 14 1 
28 1 2 1 
29 1 15 2 
ITEM: TIMESTEP
59700
ITEM: NUMBER OF ENTRIES
29
ITEM: BOX BOUNDS pp pp pp
-1.0000000000000000e+01 1.0000000000000000e+01
-1.0000000000000000e+01 1.0000000000000000e+01
-1.0000000000000000e+01 1.0000000000000000e+01
ITEM: ENTRIES index c_bondedatomid1 c_bondedatomid2 c_btype
1 19 20 1 
2 18 28 2 
3 18 20 2 
4 20 21 1 
5 16 17 1 
6 16 29 2 
7 16 19 2 
8 17 18 1 
9 29 30 1 
10 5 6 1 
11 21 29 2 
12 28 29 1 
13 11 12 1 
14 10 11 1 
15 4 5 1 
16 4 8 2 
17 23 24 1 
18 22 23 1 
19 6 7 2 
20 7 8 1 
21 8 9 1 
22 25 26 1 
23 26 27 1 
24 2 3 1 
25 2 13 2 
26 14 15 1 
27 13 14 1 
28 1 2 1 
29 1 15 2 
ITEM: TIMESTEP
59800
ITEM: NUMBER OF ENTRIES
29
ITEM: BOX BOUNDS pp pp pp
-1.0000000000000000e+01 1.0000000000000000e+01
-1.0000000000000000e+01 1.0000000000000000e+01
-1.0000000000000000e+01 1.0000000000000000e+01
ITEM: ENTRIES index c_bondedatomid1 c_bondedatomid2 c_btype
1 19 20 1 
2 18 28 2 
3 18 20 2 
4 20 21 1 
5 16 17 1 
6 16 29 2 
7 16 19 2 
8 17 18 1 
9 29 30 1 
10 5 6 1 
11 21 29 2 
12 28 29 1 
13 11 12 1 
14 10 11 1 
15 4 5 1 
16 4 8 2 
17 23 24 1 
18 22 23 1 
19 6 7 2 
20 7 8 1 
21 8 9 1 
22 25 26 1 
23 26 27 1 
24 2 3 1 
25 2 13 2 
26 14 15 1 
27 13 14 1 
28 1 2 1 
29 1 15 2 
ITEM: TIMESTEP
59900
ITEM: NUMBER OF ENTRIES
29
ITEM: BOX BOUNDS pp pp pp
-1.0000000000000000e+01 1.0000000000000000e+01
-1.0000000000000000e+01 1.0000000000000000e+01
-1.0000000000000000e+01 1.0000000000000000e+01
ITEM: ENTRIES index c_bondedatomid1 c_bondedatomid2 c_btype
1 19 20 1 
2 18 28 2 
3 18 20 2 
4 20 21 1 
5 16 17 1 
6 16 29 2 
7 16 19 2 
8 17 18 1 
9 29 30 1 
10 5 6 1 
11 21 29 2 
12 28 29 1 
13 11 12 1 
14 10 11 1 
15 4 5 1 
16 4 8 2 
17 23 24 1 
18 22 23 1 
19 6 7 2 
20 7 8 1 
21 8 9 1 
22 25 26 1 
23 26 27 1 
24 2 3 1 
25 2 13 2 
26 14 15 1 
27 13 14 1 
28 1 2 1 
29 1 15 2 
ITEM: TIMESTEP
60000
ITEM: NUMBER OF ENTRIES
29
ITEM: BOX BOUNDS pp pp pp
-1.0000000000000000e+01 1.0000000000000000e+01
-1.0000000000000000e+01 1.0000000000000000e+01
-1.0000000000000000e+01 1.0000000000000000e+01
ITEM: ENTRIES index c_bondedatomid1 c_bondedatomid2 c_btype
1 19 20 1 
2 18 28 2 
3 18 20 2 
4 20 21 1 
5 16 17 1 
6 16 29 2 
7 16 19 2 
8 17 18 1 
9 29 30 1 
10 5 6 1 
11 21 29 2 
12 28 29 1 
13 11 12 1 
14 10 11 1 
15 4 5 1 
16 4 8 2 
17 23 24 1 
18 22 23 1 
19 6 7 2 
20 7 8 1 
21 8 9 1 
22 25 26 1 
23 26 27 1 
24 2 3 1 
25 2 13 2 
26 14 15 1 
27 13 14 1 
28 1 2 1 
29 1 15 2 
ITEM: TIMESTEP
60100
ITEM: NUMBER OF ENTRIES
29
ITEM: BOX BOUNDS pp pp pp
-1.0000000000000000e+01 1.0000000000000000e+01
-1.0000000000000000e+01 1.0000000000000000e+01
-1.0000000000000000e+01 1.0000000000000000e+01
ITEM: ENTRIES index c_bondedatomid1 c_bondedatomid2 c_btype
1 19 20 1 
2 21 29 2 
3 28 29 1 
4 18 28 2 
5 18 20 2 
6 16 17 1 
7 16 29 2 
8 16 19 2 
9 17 18 1 
10 29 30 1 
11 5 6 1 
12 20 21 1 
13 11 12 1 
14 10 11 1 
15 6 7 2 
16 7 8 1 
17 4 5 1 
18 4 8 2 
19 8 9 1 
20 23 24 1 
21 22 23 1 
22 25 26 1 
23 26 27 1 
24 14 15 1 
25 13 14 1 
26 1 2 1 
27 1 15 2 
28 2 3 1 
29 2 13 2 
ITEM: TIMESTEP
60200
ITEM: NUMBER OF ENTRIES
29
ITEM: BOX BOUNDS pp pp pp
-1.0000000000000000e+01 1.0000000000000000e+01
-1.0000000000000000e+01 1.0000000000000000e+01
-1.0000000000000000e+01 1.0000000000000000e+01
ITEM: ENTRIES index c_bondedatomid1 c_bondedatomid2 c_btype
1 19 20 1 
2 21 29 2 
3 28 29 1 
4 18 28 2 
5 18 20 2 
6 16 17 1 
7 16 29 2 
8 16 19 2 
9 17 18 1 
10 29 30 1 
11 5 6 1 
12 20 21 1 
13 11 12 1 
14 10 11 1 
15 6 7 2 
16 7 8 1 
17 4 5 1 
18 4 8 2 
19 8 9 1 
20 23 24 1 
21 22 23 1 
22 25 26 1 
23 26 27 1 
24 14 15 1 
25 13 14 1 
26 1 2 1 
27 1 15 2 
28 2 3 1 
29 2 13 2 
ITEM: TIMESTEP
60300
ITEM: NUMBER OF ENTRIES
29
ITEM: BOX BOUNDS pp pp pp
-1.0000000000000000e+01 1.0000000000000000e+01
-1.0000000000000000e+01 1.0000000000000000e+01
-1.0000000000000000e+01 1.0000000000000000e+01
ITEM: ENTRIES index c_bondedatomid1 c_bondedatomid2 c_btype
1 19 20 1 
2 21 29 2 
3 28 29 1 
4 18 28 2 
5 18 20 2 
6 16 17 1 
7 16 29 2 
8 16 19 2 
9 17 18 1 
10 29 30 1 
11 5 6 1 
12 20 21 1 
13 11 12 1 
14 10 11 1 
15 6 7 2 
16 7 8 1 
17 4 5 1 
18 4 8 2 
19 8 9 1 
20 23 24 1 
21 22 23 1 
22 25 26 1 
23 26 27 1 
24 14 15 1 
25 13 14 1 
26 1 2 1 
27 1 15 2 
28 2 3 1 
29 2 13 2 
ITEM: TIMESTEP
60400
ITEM: NUMBER OF ENTRIES
29
ITEM: BOX BOUNDS pp pp pp
-1.0000000000000000e+01 1.0000000000000000e+01
-1.0000000000000000e+01 1.0000000000000000e+01
-1.0000000000000000e+01 1.0000000000000000e+01
ITEM: ENTRIES index c_bondedatomid1 c_bondedatomid2 c_btype
1 19 20 1 
2 21 29 2 
3 28 29 1 
4 18 28 2 
5 18 20 2 
6 16 17 1 
7 16 29 2 
8 16 19 2 
9 17 18 1 
10 29 30 1 
11 5 6 1 
12 20 21 1 
13 11 12 1 
14 10 11 1 
15 6 7 2 
16 7 8 1 
17 4 5 1 
18 4 8 2 
19 8 9 1 
20 23 24 1 
21 22 23 1 
22 25 26 1 
23 26 27 1 
24 14 15 1 
25 13 14 1 
26 1 2 1 
27 1 15 2 
28 2 3 1 
29 2 13 2 
ITEM: TIMESTEP
60500
ITEM: NUMBER OF ENTRIES
29
ITEM: BOX BOUNDS pp pp pp
-1.0000000000000000e+01 1.0000000000000000e+01
-1.0000000000000000e+01 1.0000000000000000e+01
-1.0000000000000000e+01 1.0000000000000000e+01
ITEM: ENTRIES index c_bondedatomid1 c_bondedatomid2 c_btype
1 19 20 1 
2 21 29 2 
3 28 29 1 
4 18 28 2 
5 18 20 2 
6 16 17 1 
7 16 29 2 
8 16 19 2 
9 17 18 1 
10 29 30 1 
11 5 6 1 
12 20 21 1 
13 11 12 1 
14 10 11 1 
15 6 7 2 
16 7 8 1 
17 4 5 1 
18 4 8 2 
19 8 9 1 
20 23 24 1 
21 22 23 1 
22 25 26 1 
23 26 27 1 
24 14 15 1 
25 13 14 1 
26 1 2 1 
27 1 15 2 
28 2 3 1 
29 2 13 2 
ITEM: TIMESTEP
60600
ITEM: NUMBER OF ENTRIES
29
ITEM: BOX BOUNDS pp pp pp
-1.0000000000000000e+01 1.0000000000000000e+01
-1.0000000000000000e+01 1.0000000000000000e+01
-1.0000000000000000e+01 1.0000000000000000e+01
ITEM: ENTRIES index c_bondedatomid1 c_bondedatomid2 c_btype
1 19 20 1 
2 21 29 2 
3 28 29 1 
4 18 28 2 
5 18 20 2 
6 16 17 1 
7 16 29 2 
8 16 19 2 
9 17 18 1 
10 29 30 1 
11 5 6 1 
12 20 21 1 
13 11 12 1 
14 10 11 1 
15 6 7 2 
16 7 8 1 
17 4 5 1 
18 4 8 2 
19 8 9 1 
20 23 24 1 
21 22 23 1 
22 25 26 1 
23 26 27 1 
24 14 15 1 
25 13 14 1 
26 1 2 1 
27 1 15 2 
28 2 3 1 
29 2 13 2 
ITEM: TIMESTEP
60700
ITEM: NUMBER OF ENTRIES
29
ITEM: BOX BOUNDS pp pp pp
-1.0000000000000000e+01 1.0000000000000000e+01
-1.0000000000000000e+01 1.0000000000000000e+01
-1.0000000000000000e+01 1.0000000000000000e+01
ITEM: ENTRIES index c_bondedatomid1 c_bondedatomid2 c_btype
1 19 20 1 
2 21 29 2 
3 28 29 1 
4 18 28 2 
5 18 20 2 
6 16 17 1 
7 16 29 2 
8 16 19 2 
9 17 18 1 
10 29 30 1 
11 5 6 1 
12 20 21 1 
13 11 12 1 
14 10 11 1 
15 6 7 2 
16 7 8 1 
17 4 5 1 
18 4 8 2 
19 8 9 1 
20 23 24 1 
21 22 23 1 
22 25 26 1 
23 26 27 1 
24 14 15 1 
25 13 14 1 
26 1 2 1 
27 1 15 2 
28 2 3 1 
29 2 13 2 
ITEM: TIMESTEP
60800
ITEM: NUMBER OF ENTRIES
29
ITEM: BOX BOUNDS pp pp pp
-1.0000000000000000e+01 1.0000000000000000e+01
-1.0000000000000000e+01 1.0000000000000000e+01
-1.0000000000000000e+01 1.0000000000000000e+01
ITEM: ENTRIES index c_bondedatomid1 c_bondedatomid2 c_btype
1 19 20 1 
2 21 29 2 
3 28 29 1 
4 18 28 2 
5 18 20 2 
6 16 17 1 
7 16 29 2 
8 16 19 2 
9 17 18 1 
10 29 30 1 
11 5 6 1 
12 20 21 1 
13 11 12 1 
14 10 11 1 
15 6 7 2 
16 7 8 1 
17 4 5 1 
18 4 8 2 
19 8 9 1 
20 23 24 1 
21 22 23 1 
22 25 26 1 
23 26 27 1 
24 14 15 1 
25 13 14 1 
26 1 2 1 
27 1 15 2 
28 2 3 1 
29 2 13 2 
ITEM: TIMESTEP
60900
ITEM: NUMBER OF ENTRIES
29
ITEM: BOX BOUNDS pp pp pp
-1.0000000000000000e+01 1.0000000000000000e+01
-1.0000000000000000e+01 1.0000000000000000e+01
-1.0000000000000000e+01 1.0000000000000000e+01
ITEM: ENTRIES index c_bondedatomid1 c_bondedatomid2 c_btype
1 19 20 1 
2 21 29 2 
3 28 29 1 
4 18 28 2 
5 18 20 2 
6 16 17 1 
7 16 29 2 
8 16 19 2 
9 17 18 1 
10 29 30 1 
11 5 6 1 
12 20 21 1 
13 11 12 1 
14 10 11 1 
15 6 7 2 
16 7 8 1 
17 4 5 1 
18 4 8 2 
19 8 9 1 
20 23 24 1 
21 22 23 1 
22 25 26 1 
23 26 27 1 
24 14 15 1 
25 13 14 1 
26 1 2 1 
27 1 15 2 
28 2 3 1 
29 2 13 2 
ITEM: TIMESTEP
61000
ITEM: NUMBER OF ENTRIES
29
ITEM: BOX BOUNDS pp pp pp
-1.0000000000000000e+01 1.0000000000000000e+01
-1.0000000000000000e+01 1.0000000000000000e+01
-1.0000000000000000e+01 1.0000000000000000e+01
ITEM: ENTRIES index c_bondedatomid1 c_bondedatomid2 c_btype
1 19 20 1 
2 21 29 2 
3 28 29 1 
4 18 28 2 
5 18 20 2 
6 16 17 1 
7 16 29 2 
8 16 19 2 
9 17 18 1 
10 29 30 1 
11 5 6 1 
12 20 21 1 
13 11 12 1 
14 10 11 1 
15 6 7 2 
16 7 8 1 
17 4 5 1 
18 4 8 2 
19 8 9 1 
20 23 24 1 
21 22 23 1 
22 25 26 1 
23 26 27 1 
24 14 15 1 
25 13 14 1 
26 1 2 1 
27 1 15 2 
28 2 3 1 
29 2 13 2 
ITEM: TIMESTEP
61100
ITEM: NUMBER OF ENTRIES
29
ITEM: BOX BOUNDS pp pp pp
-1.0000000000000000e+01 1.0000000000000000e+01
-1.0000000000000000e+01 1.0000000000000000e+01
-1.0000000000000000e+01 1.0000000000000000e+01
ITEM: ENTRIES index c_bondedatomid1 c_bondedatomid2 c_btype
1 19 20 1 
2 21 29 2 
3 18 28 2 
4 18 20 2 
5 29 30 1 
6 28 29 1 
7 16 17 1 
8 16 29 2 
9 16 19 2 
10 17 18 1 
11 20 21 1 
12 11 12 1 
13 10 11 1 
14 5 6 1 
15 7 8 1 
16 8 9 1 
17 23 24 1 
18 22 23 1 
19 6 7 2 
20 4 5 1 
21 4 8 2 
22 25 26 1 
23 26 27 1 
24 14 15 1 
25 13 14 1 
26 1 2 1 
27 1 15 2 
28 2 3 1 
29 2 13 2 
ITEM: TIMESTEP
61200
ITEM: NUMBER OF ENTRIES
29
ITEM: BOX BOUNDS pp pp pp
-1.0000000000000000e+01 1.0000000000000000e+01
-1.0000000000000000e+01 1.0000000000000000e+01
-1.0000000000000000e+01 1.0000000000000000e+01
ITEM: ENTRIES index c_bondedatomid1 c_bondedatomid2 c_btype
1 19 20 1 
2 21 29 2 
3 18 28 2 
4 18 20 2 
5 29 30 1 
6 28 29 1 
7 16 17 1 
8 16 29 2 
9 16 19 2 
10 17 18 1 
11 20 21 1 
12 11 12 1 
13 10 11 1 
14 5 6 1 
15 7 8 1 
16 8 9 1 
17 23 24 1 
18 22 23 1 
19 6 7 2 
20 4 5 1 
21 4 8 2 
22 25 26 1 
23 26 27 1 
24 14 15 1 
25 13 14 1 
26 1 2 1 
27 1 15 2 
28 2 3 1 
29 2 13 2 
ITEM: TIMESTEP
61300
ITEM: NUMBER OF ENTRIES
29
ITEM: BOX BOUNDS pp pp pp
-1.0000000000000000e+01 1.0000000000000000e+01
-1.0000000000000000e+01 1.0000000000000000e+01
-1.0000000000000000e+01 1.0000000000000000e+01
ITEM: ENTRIES index c_bondedatomid1 c_bondedatomid2 c_btype
1 19 20 1 
2 21 29 2 
3 18 28 2 
4 18 20 2 
5 29 30 1 
6 28 29 1 
7 16 17 1 
8 16 29 2 
9 16 19 2 
10 17 18 1 
11 20 21 1 
12 11 12 1 
13 10 11 1 
14 5 6 1 
15 7 8 1 
16 8 9 1 
17 23 24 1 
18 22 23 1 
19 6 7 2 
20 4 5 1 
21 4 8 2 
22 25 26 1 
23 26 27 1 
24 14 15 1 
25 13 14 1 
26 1 2 1 
27 1 15 2 
28 2 3 1 
29 2 13 2 
ITEM: TIMESTEP
61400
ITEM: NUMBER OF ENTRIES
29
ITEM: BOX BOUNDS pp pp pp
-1.0000000000000000e+01 1.0000000000000000e+01
-1.0000000000000000e+01 1.0000000000000000e+01
-1.0000000000000000e+01 1.0000000000000000e+01
ITEM: ENTRIES index c_bondedatomid1 c_bondedatomid2 c_btype
1 19 20 1 
2 21 29 2 
3 18 28 2 
4 18 20 2 
5 29 30 1 
6 28 29 1 
7 16 17 1 
8 16 29 2 
9 16 19 2 
10 17 18 1 
11 20 21 1 
12 11 12 1 
13 10 11 1 
14 5 6 1 
15 7 8 1 
16 8 9 1 
17 23 24 1 
18 22 23 1 
19 6 7 2 
20 4 5 1 
21 4 8 2 
22 25 26 1 
23 26 27 1 
24 14 15 1 
25 13 14 1 
26 1 2 1 
27 1 15 2 
28 2 3 1 
29 2 13 2 
ITEM: TIMESTEP
61500
ITEM: NUMBER OF ENTRIES
29
ITEM: BOX BOUNDS pp pp pp
-1.0000000000000000e+01 1.0000000000000000e+01
-1.0000000000000000e+01 1.0000000000000000e+01
-1.0000000000000000e+01 1.0000000000000000e+01
ITEM: ENTRIES index c_bondedatomid1 c_bondedatomid2 c_btype
1 19 20 1 
2 21 29 2 
3 18 28 2 
4 18 20 2 
5 29 30 1 
6 28 29 1 
7 16 17 1 
8 16 29 2 
9 16 19 2 
10 17 18 1 
11 20 21 1 
12 11 12 1 
13 10 11 1 
14 5 6 1 
15 7 8 1 
16 8 9 1 
17 23 24 1 
18 22 23 1 
19 6 7 2 
20 4 5 1 
21 4 8 2 
22 25 26 1 
23 26 27 1 
24 14 15 1 
25 13 14 1 
26 1 2 1 
27 1 15 2 
28 2 3 1 
29 2 13 2 
ITEM: TIMESTEP
61600
ITEM: NUMBER OF ENTRIES
29
ITEM: BOX BOUNDS pp pp pp
-1.0000000000000000e+01 1.0000000000000000e+01
-1.0000000000000000e+01 1.0000000000000000e+01
-1.0000000000000000e+01 1.0000000000000000e+01
ITEM: ENTRIES index c_bondedatomid1 c_bondedatomid2 c_btype
1 19 20 1 
2 21 29 2 
3 18 28 2 
4 18 20 2 
5 29 30 1 
6 28 29 1 
7 16 17 1 
8 16 29 2 
9 16 19 2 
10 17 18 1 
11 20 21 1 
12 11 12 1 
13 10 11 1 
14 5 6 1 
15 7 8 1 
16 8 9 1 
17 23 24 1 
18 22 23 1 
19 6 7 2 
20 4 5 1 
21 4 8 2 
22 25 26 1 
23 26 27 1 
24 14 15 1 
25 13 14 1 
26 1 2 1 
27 1 15 2 
28 2 3 1 
29 2 13 2 
ITEM: TIMESTEP
61700
ITEM: NUMBER OF ENTRIES
29
ITEM: BOX BOUNDS pp pp pp
-1.0000000000000000e+01 1.0000000000000000e+01
-1.0000000000000000e+01 1.0000000000000000e+01
-1.0000000000000000e+01 1.0000000000000000e+01
ITEM: ENTRIES index c_bondedatomid1 c_bondedatomid2 c_btype
1 19 20 1 
2 21 29 2 
3 18 28 2 
4 18 20 2 
5 29 30 1 
6 28 29 1 
7 16 17 1 
8 16 29 2 
9 16 19 2 
10 17 18 1 
11 20 21 1 
12 11 12 1 
13 10 11 1 
14 5 6 1 
15 7 8 1 
16 8 9 1 
17 23 24 1 
18 22 23 1 
19 6 7 2 
20 4 5 1 
21 4 8 2 
22 25 26 1 
23 26 27 1 
24 14 15 1 
25 13 14 1 
26 1 2 1 
27 1 15 2 
28 2 3 1 
29 2 13 2 
ITEM: TIMESTEP
61800
ITEM: NUMBER OF ENTRIES
29
ITEM: BOX BOUNDS pp pp pp
-1.0000000000000000e+01 1.0000000000000000e+01
-1.0000000000000000e+01 1.0000000000000000e+01
-1.0000000000000000e+01 1.0000000000000000e+01
ITEM: ENTRIES index c_bondedatomid1 c_bondedatomid2 c_btype
1 19 20 1 
2 21 29 2 
3 18 28 2 
4 18 20 2 
5 29 30 1 
6 28 29 1 
7 16 17 1 
8 16 29 2 
9 16 19 2 
10 17 18 1 
11 20 21 1 
12 11 12 1 
13 10 11 1 
14 5 6 1 
15 7 8 1 
16 8 9 1 
17 23 24 1 
18 22 23 1 
19 6 7 2 
20 4 5 1 
21 4 8 2 
22 25 26 1 
23 26 27 1 
24 14 15 1 
25 13 14 1 
26 1 2 1 
27 1 15 2 
28 2 3 1 
29 2 13 2 
ITEM: TIMESTEP
61900
ITEM: NUMBER OF ENTRIES
29
ITEM: BOX BOUNDS pp pp pp
-1.0000000000000000e+01 1.0000000000000000e+01
-1.0000000000000000e+01 1.0000000000000000e+01
-1.0000000000000000e+01 1.0000000000000000e+01
ITEM: ENTRIES index c_bondedatomid1 c_bondedatomid2 c_btype
1 19 20 1 
2 21 29 2 
3 18 28 2 
4 18 20 2 
5 29 30 1 
6 28 29 1 
7 16 17 1 
8 16 29 2 
9 16 19 2 
10 17 18 1 
11 20 21 1 
12 11 12 1 
13 10 11 1 
14 5 6 1 
15 7 8 1 
16 8 9 1 
17 23 24 1 
18 22 23 1 
19 6 7 2 
20 4 5 1 
21 4 8 2 
22 25 26 1 
23 26 27 1 
24 14 15 1 
25 13 14 1 
26 1 2 1 
27 1 15 2 
28 2 3 1 
29 2 13 2 
ITEM: TIMESTEP
62000
ITEM: NUMBER OF ENTRIES
29
ITEM: BOX BOUNDS pp pp pp
-1.0000000000000000e+01 1.0000000000000000e+01
-1.0000000000000000e+01 1.0000000000000000e+01
-1.0000000000000000e+01 1.0000000000000000e+01
ITEM: ENTRIES index c_bondedatomid1 c_bondedatomid2 c_btype
1 19 20 1 
2 21 29 2 
3 18 28 2 
4 18 20 2 
5 29 30 1 
6 28 29 1 
7 16 17 1 
8 16 29 2 
9 16 19 2 
10 17 18 1 
11 20 21 1 
12 11 12 1 
13 10 11 1 
14 5 6 1 
15 7 8 1 
16 8 9 1 
17 23 24 1 
18 22 23 1 
19 6 7 2 
20 4 5 1 
21 4 8 2 
22 25 26 1 
23 26 27 1 
24 14 15 1 
25 13 14 1 
26 1 2 1 
27 1 15 2 
28 2 3 1 
29 2 13 2 
ITEM: TIMESTEP
62100
ITEM: NUMBER OF ENTRIES
29
ITEM: BOX BOUNDS pp pp pp
-1.0000000000000000e+01 1.0000000000000000e+01
-1.0000000000000000e+01 1.0000000000000000e+01
-1.0000000000000000e+01 1.0000000000000000e+01
ITEM: ENTRIES index c_bondedatomid1 c_bondedatomid2 c_btype
1 19 20 1 
2 21 29 2 
3 18 28 2 
4 18 20 2 
5 29 30 1 
6 28 29 1 
7 16 17 1 
8 16 29 2 
9 16 19 2 
10 17 18 1 
11 20 21 1 
12 11 12 1 
13 10 11 1 
14 5 6 1 
15 7 8 1 
16 8 9 1 
17 23 24 1 
18 22 23 1 
19 6 7 2 
20 4 5 1 
21 4 8 2 
22 25 26 1 
23 26 27 1 
24 14 15 1 
25 13 14 1 
26 1 2 1 
27 1 15 2 
28 2 3 1 
29 2 13 2 
ITEM: TIMESTEP
62200
ITEM: NUMBER OF ENTRIES
29
ITEM: BOX BOUNDS pp pp pp
-1.0000000000000000e+01 1.0000000000000000e+01
-1.0000000000000000e+01 1.0000000000000000e+01
-1.0000000000000000e+01 1.0000000000000000e+01
ITEM: ENTRIES index c_bondedatomid1 c_bondedatomid2 c_btype
1 19 20 1 
2 21 29 2 
3 18 28 2 
4 18 20 2 
5 29 30 1 
6 28 29 1 
7 20 21 1 
8 16 17 1 
9 16 29 2 
10 16 19 2 
11 17 18 1 
12 11 12 1 
13 10 11 1 
14 7 8 1 
15 6 7 2 
16 23 24 1 
17 22 23 1 
18 25 26 1 
19 5 6 1 
20 8 9 1 
21 4 5 1 
22 4 8 2 
23 26 27 1 
24 13 14 1 
25 1 2 1 
26 1 15 2 
27 2 3 1 
28 2 13 2 
29 14 15 1 
ITEM: TIMESTEP
62300
ITEM: NUMBER OF ENTRIES
29
ITEM: BOX BOUNDS pp pp pp
-1.0000000000000000e+01 1.0000000000000000e+01
-1.0000000000000000e+01 1.0000000000000000e+01
-1.0000000000000000e+01 1.0000000000000000e+01
ITEM: ENTRIES index c_bondedatomid1 c_bondedatomid2 c_btype
1 19 20 1 
2 21 29 2 
3 18 28 2 
4 18 20 2 
5 29 30 1 
6 28 29 1 
7 20 21 1 
8 16 17 1 
9 16 29 2 
10 16 19 2 
11 17 18 1 
12 11 12 1 
13 10 11 1 
14 7 8 1 
15 6 7 2 
16 23 24 1 
17 22 23 1 
18 25 26 1 
19 5 6 1 
20 8 9 1 
21 4 5 1 
22 4 8 2 
23 26 27 1 
24 13 14 1 
25 1 2 1 
26 1 15 2 
27 2 3 1 
28 2 13 2 
29 14 15 1 
ITEM: TIMESTEP
62400
ITEM: NUMBER OF ENTRIES
29
ITEM: BOX BOUNDS pp pp pp
-1.0000000000000000e+01 1.0000000000000000e+01
-1.0000000000000000e+01 1.0000000000000000e+01
-1.0000000000000000e+01 1.0000000000000000e+01
ITEM: ENTRIES index c_bondedatomid1 c_bondedatomid2 c_btype
1 19 20 1 
2 21 29 2 
3 18 28 2 
4 18 20 2 
5 29 30 1 
6 28 29 1 
7 20 21 1 
8 16 17 1 
9 16 29 2 
10 16 19 2 
11 17 18 1 
12 11 12 1 
13 10 11 1 
14 7 8 1 
15 6 7 2 
16 23 24 1 
17 22 23 1 
18 25 26 1 
19 5 6 1 
20 8 9 1 
21 4 5 1 
22 4 8 2 
23 26 27 1 
24 13 14 1 
25 1 2 1 
26 1 15 2 
27 2 3 1 
28 2 13 2 
29 14 15 1 
ITEM: TIMESTEP
62500
ITEM: NUMBER OF ENTRIES
29
ITEM: BOX BOUNDS pp pp pp
-1.0000000000000000e+01 1.0000000000000000e+01
-1.0000000000000000e+01 1.0000000000000000e+01
-1.0000000000000000e+01 1.0000000000000000e+01
ITEM: ENTRIES index c_bondedatomid1 c_bondedatomid2 c_btype
1 19 20 1 
2 21 29 2 
3 18 28 2 
4 18 20 2 
5 29 30 1 
6 28 29 1 
7 20 21 1 
8 16 17 1 
9 16 29 2 
10 16 19 2 
11 17 18 1 
12 11 12 1 
13 10 11 1 
14 7 8 1 
15 6 7 2 
16 23 24 1 
17 22 23 1 
18 25 26 1 
19 5 6 1 
20 8 9 1 
21 4 5 1 
22 4 8 2 
23 26 27 1 
24 13 14 1 
25 1 2 1 
26 1 15 2 
27 2 3 1 
28 2 13 2 
29 14 15 1 
ITEM: TIMESTEP
62600
ITEM: NUMBER OF ENTRIES
29
ITEM: BOX BOUNDS pp pp pp
-1.0000000000000000e+01 1.0000000000000000e+01
-1.0000000000000000e+01 1.0000000000000000e+01
-1.0000000000000000e+01 1.0000000000000000e+01
ITEM: ENTRIES index c_bondedatomid1 c_bondedatomid2 c_btype
1 19 20 1 
2 21 29 2 
3 18 28 2 
4 18 20 2 
5 29 30 1 
6 28 29 1 
7 20 21 1 
8 16 17 1 
9 16 29 2 
10 16 19 2 
11 17 18 1 
12 11 12 1 
13 10 11 1 
14 7 8 1 
15 6 7 2 
16 23 24 1 
17 22 23 1 
18 25 26 1 
19 5 6 1 
20 8 9 1 
21 4 5 1 
22 4 8 2 
23 26 27 1 
24 13 14 1 
25 1 2 1 
26 1 15 2 
27 2 3 1 
28 2 13 2 
29 14 15 1 
ITEM: TIMESTEP
62700
ITEM: NUMBER OF ENTRIES
29
ITEM: BOX BOUNDS pp pp pp
-1.0000000000000000e+01 1.0000000000000000e+01
-1.0000000000000000e+01 1.0000000000000000e+01
-1.0000000000000000e+01 1.0000000000000000e+01
ITEM: ENTRIES index c_bondedatomid1 c_bondedatomid2 c_btype
1 19 20 1 
2 21 29 2 
3 18 28 2 
4 18 20 2 
5 29 30 1 
6 28 29 1 
7 20 21 1 
8 16 17 1 
9 16 29 2 
10 16 19 2 
11 17 18 1 
12 11 12 1 
13 10 11 1 
14 7 8 1 
15 6 7 2 
16 23 24 1 
17 22 23 1 
18 25 26 1 
19 5 6 1 
20 8 9 1 
21 4 5 1 
22 4 8 2 
23 26 27 1 
24 13 14 1 
25 1 2 1 
26 1 15 2 
27 2 3 1 
28 2 13 2 
29 14 15 1 
ITEM: TIMESTEP
62800
ITEM: NUMBER OF ENTRIES
29
ITEM: BOX BOUNDS pp pp pp
-1.0000000000000000e+01 1.0000000000000000e+01
-1.0000000000000000e+01 1.0000000000000000e+01
-1.0000000000000000e+01 1.0000000000000000e+01
ITEM: ENTRIES index c_bondedatomid1 c_bondedatomid2 c_btype
1 19 20 1 
2 21 29 2 
3 18 28 2 
4 18 20 2 
5 29 30 1 
6 28 29 1 
7 20 21 1 
8 16 17 1 
9 16 29 2 
10 16 19 2 
11 17 18 1 
12 11 12 1 
13 10 11 1 
14 7 8 1 
15 6 7 2 
16 23 24 1 
17 22 23 1 
18 25 26 1 
19 5 6 1 
20 8 9 1 
21 4 5 1 
22 4 8 2 
23 26 27 1 
24 13 14 1 
25 1 2 1 
26 1 15 2 
27 2 3 1 
28 2 13 2 
29 14 15 1 
ITEM: TIMESTEP
62900
ITEM: NUMBER OF ENTRIES
29
ITEM: BOX BOUNDS pp pp pp
-1.0000000000000000e+01 1.0000000000000000e+01
-1.0000000000000000e+01 1.0000000000000000e+01
-1.0000000000000000e+01 1.0000000000000000e+01
ITEM: ENTRIES index c_bondedatomid1 c_bondedatomid2 c_btype
1 19 20 1 
2 21 29 2 
3 18 28 2 
4 18 20 2 
5 29 30 1 
6 28 29 1 
7 20 21 1 
8 16 17 1 
9 16 29 2 
10 16 19 2 
11 17 18 1 
12 11 12 1 
13 10 11 1 
14 7 8 1 
15 6 7 2 
16 23 24 1 
17 22 23 1 
18 25 26 1 
19 5 6 1 
20 8 9 1 
21 4 5 1 
22 4 8 2 
23 26 27 1 
24 13 14 1 
25 1 2 1 
26 1 15 2 
27 2 3 1 
28 2 13 2 
29 14 15 1 
ITEM: TIMESTEP
63000
ITEM: NUMBER OF ENTRIES
29
ITEM: BOX BOUNDS pp pp pp
-1.0000000000000000e+01 1.0000000000000000e+01
-1.0000000000000000e+01 1.0000000000000000e+01
-1.0000000000000000e+01 1.0000000000000000e+01
ITEM: ENTRIES index c_bondedatomid1 c_bondedatomid2 c_btype
1 19 20 1 
2 21 29 2 
3 18 28 2 
4 18 20 2 
5 29 30 1 
6 28 29 1 
7 20 21 1 
8 16 17 1 
9 16 29 2 
10 16 19 2 
11 17 18 1 
12 11 12 1 
13 10 11 1 
14 7 8 1 
15 6 7 2 
16 23 24 1 
17 22 23 1 
18 25 26 1 
19 5 6 1 
20 8 9 1 
21 4 5 1 
22 4 8 2 
23 26 27 1 
24 13 14 1 
25 1 2 1 
26 1 15 2 
27 2 3 1 
28 2 13 2 
29 14 15 1 
ITEM: TIMESTEP
63100
ITEM: NUMBER OF ENTRIES
29
ITEM: BOX BOUNDS pp pp pp
-1.0000000000000000e+01 1.0000000000000000e+01
-1.0000000000000000e+01 1.0000000000000000e+01
-1.0000000000000000e+01 1.0000000000000000e+01
ITEM: ENTRIES index c_bondedatomid1 c_bondedatomid2 c_btype
1 19 20 1 
2 21 29 2 
3 18 28 2 
4 18 20 2 
5 29 30 1 
6 20 21 1 
7 16 17 1 
8 16 29 2 
9 16 19 2 
10 17 18 1 
11 10 11 1 
12 28 29 1 
13 23 24 1 
14 11 12 1 
15 22 23 1 
16 8 9 1 
17 5 6 1 
18 25 26 1 
19 7 8 1 
20 6 7 2 
21 4 5 1 
22 4 8 2 
23 26 27 1 
24 1 2 1 
25 1 15 2 
26 2 3 1 
27 2 13 2 
28 14 15 1 
29 13 14 1 
ITEM: TIMESTEP
63200
ITEM: NUMBER OF ENTRIES
29
ITEM: BOX BOUNDS pp pp pp
-1.0000000000000000e+01 1.0000000000000000e+01
-1.0000000000000000e+01 1.0000000000000000e+01
-1.0000000000000000e+01 1.0000000000000000e+01
ITEM: ENTRIES index c_bondedatomid1 c_bondedatomid2 c_btype
1 19 20 1 
2 21 29 2 
3 18 28 2 
4 18 20 2 
5 29 30 1 
6 20 21 1 
7 16 17 1 
8 16 29 2 
9 16 19 2 
10 17 18 1 
11 10 11 1 
12 28 29 1 
13 23 24 1 
14 11 12 1 
15 22 23 1 
16 8 9 1 
17 5 6 1 
18 25 26 1 
19 7 8 1 
20 6 7 2 
21 4 5 1 
22 4 8 2 
23 26 27 1 
24 1 2 1 
25 1 15 2 
26 2 3 1 
27 2 13 2 
28 14 15 1 
29 13 14 1 
ITEM: TIMESTEP
63300
ITEM: NUMBER OF ENTRIES
29
ITEM: BOX BOUNDS pp pp pp
-1.0000000000000000e+01 1.0000000000000000e+01
-1.0000000000000000e+01 1.0000000000000000e+01
-1.0000000000000000e+01 1.0000000000000000e+01
ITEM: ENTRIES index c_bondedatomid1 c_bondedatomid2 c_btype
1 19 20 1 
2 21 29 2 
3 18 28 2 
4 18 20 2 
5 29 30 1 
6 20 21 1 
7 16 17 1 
8 16 29 2 
9 16 19 2 
10 17 18 1 
11 10 11 1 
12 28 29 1 
13 23 24 1 
14 11 12 1 
15 22 23 1 
16 8 9 1 
17 5 6 1 
18 25 26 1 
19 7 8 1 
20 6 7 2 
21 4 5 1 
22 4 8 2 
23 26 27 1 
24 1 2 1 
25 1 15 2 
26 2 3 1 
27 2 13 2 
28 14 15 1 
29 13 14 1 
ITEM: TIMESTEP
63400
ITEM: NUMBER OF ENTRIES
29
ITEM: BOX BOUNDS pp pp pp
-1.0000000000000000e+01 1.0000000000000000e+01
-1.0000000000000000e+01 1.0000000000000000e+01
-1.0000000000000000e+01 1.0000000000000000e+01
ITEM: ENTRIES index c_bondedatomid1 c_bondedatomid2 c_btype
1 19 20 1 
2 21 29 2 
3 18 28 2 
4 18 20 2 
5 29 30 1 
6 20 21 1 
7 16 17 1 
8 16 29 2 
9 16 19 2 
10 17 18 1 
11 10 11 1 
12 28 29 1 
13 23 24 1 
14 11 12 1 
15 22 23 1 
16 8 9 1 
17 5 6 1 
18 25 26 1 
19 7 8 1 
20 6 7 2 
21 4 5 1 
22 4 8 2 
23 26 27 1 
24 1 2 1 
25 1 15 2 
26 2 3 1 
27 2 13 2 
28 14 15 1 
29 13 14 1 
ITEM: TIMESTEP
63500
ITEM: NUMBER OF ENTRIES
29
ITEM: BOX BOUNDS pp pp pp
-1.0000000000000000e+01 1.0000000000000000e+01
-1.0000000000000000e+01 1.0000000000000000e+01
-1.0000000000000000e+01 1.0000000000000000e+01
ITEM: ENTRIES index c_bondedatomid1 c_bondedatomid2 c_btype
1 19 20 1 
2 21 29 2 
3 18 28 2 
4 18 20 2 
5 29 30 1 
6 20 21 1 
7 16 17 1 
8 16 29 2 
9 16 19 2 
10 17 18 1 
11 10 11 1 
12 28 29 1 
13 23 24 1 
14 11 12 1 
15 22 23 1 
16 8 9 1 
17 5 6 1 
18 25 26 1 
19 7 8 1 
20 6 7 2 
21 4 5 1 
22 4 8 2 
23 26 27 1 
24 1 2 1 
25 1 15 2 
26 2 3 1 
27 2 13 2 
28 14 15 1 
29 13 14 1 
ITEM: TIMESTEP
63600
ITEM: NUMBER OF ENTRIES
29
ITEM: BOX BOUNDS pp pp pp
-1.0000000000000000e+01 1.0000000000000000e+01
-1.0000000000000000e+01 1.0000000000000000e+01
-1.0000000000000000e+01 1.0000000000000000e+01
ITEM: ENTRIES index c_bondedatomid1 c_bondedatomid2 c_btype
1 19 20 1 
2 21 29 2 
3 18 28 2 
4 18 20 2 
5 29 30 1 
6 20 21 1 
7 16 17 1 
8 16 29 2 
9 16 19 2 
10 17 18 1 
11 10 11 1 
12 28 29 1 
13 23 24 1 
14 11 12 1 
15 22 23 1 
16 8 9 1 
17 5 6 1 
18 25 26 1 
19 7 8 1 
20 6 7 2 
21 4 5 1 
22 4 8 2 
23 26 27 1 
24 1 2 1 
25 1 15 2 
26 2 3 1 
27 2 13 2 
28 14 15 1 
29 13 14 1 
ITEM: TIMESTEP
63700
ITEM: NUMBER OF ENTRIES
29
ITEM: BOX BOUNDS pp pp pp
-1.0000000000000000e+01 1.0000000000000000e+01
-1.0000000000000000e+01 1.0000000000000000e+01
-1.0000000000000000e+01 1.0000000000000000e+01
ITEM: ENTRIES index c_bondedatomid1 c_bondedatomid2 c_btype
1 19 20 1 
2 21 29 2 
3 18 28 2 
4 18 20 2 
5 29 30 1 
6 20 21 1 
7 16 17 1 
8 16 29 2 
9 16 19 2 
10 17 18 1 
11 10 11 1 
12 28 29 1 
13 23 24 1 
14 11 12 1 
15 22 23 1 
16 8 9 1 
17 5 6 1 
18 25 26 1 
19 7 8 1 
20 6 7 2 
21 4 5 1 
22 4 8 2 
23 26 27 1 
24 1 2 1 
25 1 15 2 
26 2 3 1 
27 2 13 2 
28 14 15 1 
29 13 14 1 
ITEM: TIMESTEP
63800
ITEM: NUMBER OF ENTRIES
29
ITEM: BOX BOUNDS pp pp pp
-1.0000000000000000e+01 1.0000000000000000e+01
-1.0000000000000000e+01 1.0000000000000000e+01
-1.0000000000000000e+01 1.0000000000000000e+01
ITEM: ENTRIES index c_bondedatomid1 c_bondedatomid2 c_btype
1 19 20 1 
2 21 29 2 
3 18 28 2 
4 18 20 2 
5 29 30 1 
6 20 21 1 
7 16 17 1 
8 16 29 2 
9 16 19 2 
10 17 18 1 
11 10 11 1 
12 28 29 1 
13 23 24 1 
14 11 12 1 
15 22 23 1 
16 8 9 1 
17 5 6 1 
18 25 26 1 
19 7 8 1 
20 6 7 2 
21 4 5 1 
22 4 8 2 
23 26 27 1 
24 1 2 1 
25 1 15 2 
26 2 3 1 
27 2 13 2 
28 14 15 1 
29 13 14 1 
ITEM: TIMESTEP
63900
ITEM: NUMBER OF ENTRIES
29
ITEM: BOX BOUNDS pp pp pp
-1.0000000000000000e+01 1.0000000000000000e+01
-1.0000000000000000e+01 1.0000000000000000e+01
-1.0000000000000000e+01 1.0000000000000000e+01
ITEM: ENTRIES index c_bondedatomid1 c_bondedatomid2 c_btype
1 19 20 1 
2 21 29 2 
3 18 28 2 
4 18 20 2 
5 29 30 1 
6 20 21 1 
7 16 17 1 
8 16 29 2 
9 16 19 2 
10 17 18 1 
11 10 11 1 
12 28 29 1 
13 23 24 1 
14 11 12 1 
15 22 23 1 
16 8 9 1 
17 5 6 1 
18 25 26 1 
19 7 8 1 
20 6 7 2 
21 4 5 1 
22 4 8 2 
23 26 27 1 
24 1 2 1 
25 1 15 2 
26 2 3 1 
27 2 13 2 
28 14 15 1 
29 13 14 1 
ITEM: TIMESTEP
64000
ITEM: NUMBER OF ENTRIES
29
ITEM: BOX BOUNDS pp pp pp
-1.0000000000000000e+01 1.0000000000000000e+01
-1.0000000000000000e+01 1.0000000000000000e+01
-1.0000000000000000e+01 1.0000000000000000e+01
ITEM: ENTRIES index c_bondedatomid1 c_bondedatomid2 c_btype
1 19 20 1 
2 21 29 2 
3 18 28 2 
4 18 20 2 
5 29 30 1 
6 20 21 1 
7 16 17 1 
8 16 29 2 
9 16 19 2 
10 17 18 1 
11 10 11 1 
12 28 29 1 
13 23 24 1 
14 11 12 1 
15 22 23 1 
16 8 9 1 
17 5 6 1 
18 25 26 1 
19 7 8 1 
20 6 7 2 
21 4 5 1 
22 4 8 2 
23 26 27 1 
24 1 2 1 
25 1 15 2 
26 2 3 1 
27 2 13 2 
28 14 15 1 
29 13 14 1 
ITEM: TIMESTEP
64100
ITEM: NUMBER OF ENTRIES
29
ITEM: BOX BOUNDS pp pp pp
-1.0000000000000000e+01 1.0000000000000000e+01
-1.0000000000000000e+01 1.0000000000000000e+01
-1.0000000000000000e+01 1.0000000000000000e+01
ITEM: ENTRIES index c_bondedatomid1 c_bondedatomid2 c_btype
1 19 20 1 
2 21 29 2 
3 18 28 2 
4 18 20 2 
5 29 30 1 
6 20 21 1 
7 16 17 1 
8 16 29 2 
9 16 19 2 
10 17 18 1 
11 28 29 1 
12 11 12 1 
13 10 11 1 
14 23 24 1 
15 22 23 1 
16 5 6 1 
17 6 7 2 
18 25 26 1 
19 26 27 1 
20 8 9 1 
21 7 8 1 
22 4 5 1 
23 4 8 2 
24 1 2 1 
25 1 15 2 
26 2 3 1 
27 2 13 2 
28 14 15 1 
29 13 14 1 
ITEM: TIMESTEP
64200
ITEM: NUMBER OF ENTRIES
29
ITEM: BOX BOUNDS pp pp pp
-1.0000000000000000e+01 1.0000000000000000e+01
-1.0000000000000000e+01 1.0000000000000000e+01
-1.0000000000000000e+01 1.0000000000000000e+01
ITEM: ENTRIES index c_bondedatomid1 c_bondedatomid2 c_btype
1 19 20 1 
2 21 29 2 
3 18 28 2 
4 18 20 2 
5 29 30 1 
6 20 21 1 
7 16 17 1 
8 16 29 2 
9 16 19 2 
10 17 18 1 
11 28 29 1 
12 11 12 1 
13 10 11 1 
14 23 24 1 
15 22 23 1 
16 5 6 1 
17 6 7 2 
18 25 26 1 
19 26 27 1 
20 8 9 1 
21 7 8 1 
22 4 5 1 
23 4 8 2 
24 1 2 1 
25 1 15 2 
26 2 3 1 
27 2 13 2 
28 14 15 1 
29 13 14 1 
ITEM: TIMESTEP
64300
ITEM: NUMBER OF ENTRIES
29
ITEM: BOX BOUNDS pp pp pp
-1.0000000000000000e+01 1.0000000000000000e+01
-1.0000000000000000e+01 1.0000000000000000e+01
-1.0000000000000000e+01 1.0000000000000000e+01
ITEM: ENTRIES index c_bondedatomid1 c_bondedatomid2 c_btype
1 19 20 1 
2 21 29 2 
3 18 28 2 
4 18 20 2 
5 29 30 1 
6 20 21 1 
7 16 17 1 
8 16 29 2 
9 16 19 2 
10 17 18 1 
11 28 29 1 
12 11 12 1 
13 10 11 1 
14 23 24 1 
15 22 23 1 
16 5 6 1 
17 6 7 2 
18 25 26 1 
19 26 27 1 
20 8 9 1 
21 7 8 1 
22 4 5 1 
23 4 8 2 
24 1 2 1 
25 1 15 2 
26 2 3 1 
27 2 13 2 
28 14 15 1 
29 13 14 1 
ITEM: TIMESTEP
64400
ITEM: NUMBER OF ENTRIES
29
ITEM: BOX BOUNDS pp pp pp
-1.0000000000000000e+01 1.0000000000000000e+01
-1.0000000000000000e+01 1.0000000000000000e+01
-1.0000000000000000e+01 1.0000000000000000e+01
ITEM: ENTRIES index c_bondedatomid1 c_bondedatomid2 c_btype
1 19 20 1 
2 21 29 2 
3 18 28 2 
4 18 20 2 
5 29 30 1 
6 20 21 1 
7 16 17 1 
8 16 29 2 
9 16 19 2 
10 17 18 1 
11 28 29 1 
12 11 12 1 
13 10 11 1 
14 23 24 1 
15 22 23 1 
16 5 6 1 
17 6 7 2 
18 25 26 1 
19 26 27 1 
20 8 9 1 
21 7 8 1 
22 4 5 1 
23 4 8 2 
24 1 2 1 
25 1 15 2 
26 2 3 1 
27 2 13 2 
28 14 15 1 
29 13 14 1 
ITEM: TIMESTEP
64500
ITEM: NUMBER OF ENTRIES
29
ITEM: BOX BOUNDS pp pp pp
-1.0000000000000000e+01 1.0000000000000000e+01
-1.0000000000000000e+01 1.0000000000000000e+01
-1.0000000000000000e+01 1.0000000000000000e+01
ITEM: ENTRIES index c_bondedatomid1 c_bondedatomid2 c_btype
1 19 20 1 
2 21 29 2 
3 18 28 2 
4 18 20 2 
5 29 30 1 
6 20 21 1 
7 16 17 1 
8 16 29 2 
9 16 19 2 
10 17 18 1 
11 28 29 1 
12 11 12 1 
13 10 11 1 
14 23 24 1 
15 22 23 1 
16 5 6 1 
17 6 7 2 
18 25 26 1 
19 26 27 1 
20 8 9 1 
21 7 8 1 
22 4 5 1 
23 4 8 2 
24 1 2 1 
25 1 15 2 
26 2 3 1 
27 2 13 2 
28 14 15 1 
29 13 14 1 
ITEM: TIMESTEP
64600
ITEM: NUMBER OF ENTRIES
29
ITEM: BOX BOUNDS pp pp pp
-1.0000000000000000e+01 1.0000000000000000e+01
-1.0000000000000000e+01 1.0000000000000000e+01
-1.0000000000000000e+01 1.0000000000000000e+01
ITEM: ENTRIES index c_bondedatomid1 c_bondedatomid2 c_btype
1 19 20 1 
2 21 29 2 
3 18 28 2 
4 18 20 2 
5 29 30 1 
6 20 21 1 
7 16 17 1 
8 16 29 2 
9 16 19 2 
10 17 18 1 
11 28 29 1 
12 11 12 1 
13 10 11 1 
14 23 24 1 
15 22 23 1 
16 5 6 1 
17 6 7 2 
18 25 26 1 
19 26 27 1 
20 8 9 1 
21 7 8 1 
22 4 5 1 
23 4 8 2 
24 1 2 1 
25 1 15 2 
26 2 3 1 
27 2 13 2 
28 14 15 1 
29 13 14 1 
ITEM: TIMESTEP
64700
ITEM: NUMBER OF ENTRIES
29
ITEM: BOX BOUNDS pp pp pp
-1.0000000000000000e+01 1.0000000000000000e+01
-1.0000000000000000e+01 1.0000000000000000e+01
-1.0000000000000000e+01 1.0000000000000000e+01
ITEM: ENTRIES index c_bondedatomid1 c_bondedatomid2 c_btype
1 19 20 1 
2 21 29 2 
3 18 28 2 
4 18 20 2 
5 29 30 1 
6 20 21 1 
7 16 17 1 
8 16 29 2 
9 16 19 2 
10 17 18 1 
11 28 29 1 
12 11 12 1 
13 10 11 1 
14 23 24 1 
15 22 23 1 
16 5 6 1 
17 6 7 2 
18 25 26 1 
19 26 27 1 
20 8 9 1 
21 7 8 1 
22 4 5 1 
23 4 8 2 
24 1 2 1 
25 1 15 2 
26 2 3 1 
27 2 13 2 
28 14 15 1 
29 13 14 1 
ITEM: TIMESTEP
64800
ITEM: NUMBER OF ENTRIES
29
ITEM: BOX BOUNDS pp pp pp
-1.0000000000000000e+01 1.0000000000000000e+01
-1.0000000000000000e+01 1.0000000000000000e+01
-1.0000000000000000e+01 1.0000000000000000e+01
ITEM: ENTRIES index c_bondedatomid1 c_bondedatomid2 c_btype
1 19 20 1 
2 21 29 2 
3 18 28 2 
4 18 20 2 
5 29 30 1 
6 20 21 1 
7 16 17 1 
8 16 29 2 
9 16 19 2 
10 17 18 1 
11 28 29 1 
12 11 12 1 
13 10 11 1 
14 23 24 1 
15 22 23 1 
16 5 6 1 
17 6 7 2 
18 25 26 1 
19 26 27 1 
20 8 9 1 
21 7 8 1 
22 4 5 1 
23 4 8 2 
24 1 2 1 
25 1 15 2 
26 2 3 1 
27 2 13 2 
28 14 15 1 
29 13 14 1 
ITEM: TIMESTEP
64900
ITEM: NUMBER OF ENTRIES
29
ITEM: BOX BOUNDS pp pp pp
-1.0000000000000000e+01 1.0000000000000000e+01
-1.0000000000000000e+01 1.0000000000000000e+01
-1.0000000000000000e+01 1.0000000000000000e+01
ITEM: ENTRIES index c_bondedatomid1 c_bondedatomid2 c_btype
1 19 20 1 
2 21 29 2 
3 18 28 2 
4 18 20 2 
5 29 30 1 
6 20 21 1 
7 16 17 1 
8 16 29 2 
9 16 19 2 
10 17 18 1 
11 28 29 1 
12 11 12 1 
13 10 11 1 
14 23 24 1 
15 22 23 1 
16 5 6 1 
17 6 7 2 
18 25 26 1 
19 26 27 1 
20 8 9 1 
21 7 8 1 
22 4 5 1 
23 4 8 2 
24 1 2 1 
25 1 15 2 
26 2 3 1 
27 2 13 2 
28 14 15 1 
29 13 14 1 
ITEM: TIMESTEP
65000
ITEM: NUMBER OF ENTRIES
29
ITEM: BOX BOUNDS pp pp pp
-1.0000000000000000e+01 1.0000000000000000e+01
-1.0000000000000000e+01 1.0000000000000000e+01
-1.0000000000000000e+01 1.0000000000000000e+01
ITEM: ENTRIES index c_bondedatomid1 c_bondedatomid2 c_btype
1 19 20 1 
2 21 29 2 
3 18 28 2 
4 18 20 2 
5 29 30 1 
6 20 21 1 
7 16 17 1 
8 16 29 2 
9 16 19 2 
10 17 18 1 
11 28 29 1 
12 11 12 1 
13 10 11 1 
14 23 24 1 
15 22 23 1 
16 5 6 1 
17 6 7 2 
18 25 26 1 
19 26 27 1 
20 8 9 1 
21 7 8 1 
22 4 5 1 
23 4 8 2 
24 1 2 1 
25 1 15 2 
26 2 3 1 
27 2 13 2 
28 14 15 1 
29 13 14 1 
ITEM: TIMESTEP
65100
ITEM: NUMBER OF ENTRIES
29
ITEM: BOX BOUNDS pp pp pp
-1.0000000000000000e+01 1.0000000000000000e+01
-1.0000000000000000e+01 1.0000000000000000e+01
-1.0000000000000000e+01 1.0000000000000000e+01
ITEM: ENTRIES index c_bondedatomid1 c_bondedatomid2 c_btype
1 19 20 1 
2 21 29 2 
3 18 28 2 
4 18 20 2 
5 29 30 1 
6 20 21 1 
7 16 17 1 
8 16 29 2 
9 16 19 2 
10 17 18 1 
11 28 29 1 
12 11 12 1 
13 10 11 1 
14 22 23 1 
15 23 24 1 
16 26 27 1 
17 5 6 1 
18 6 7 2 
19 8 9 1 
20 7 8 1 
21 4 5 1 
22 4 8 2 
23 25 26 1 
24 1 2 1 
25 1 15 2 
26 2 3 1 
27 2 13 2 
28 14 15 1 
29 13 14 1 
ITEM: TIMESTEP
65200
ITEM: NUMBER OF ENTRIES
29
ITEM: BOX BOUNDS pp pp pp
-1.0000000000000000e+01 1.0000000000000000e+01
-1.0000000000000000e+01 1.0000000000000000e+01
-1.0000000000000000e+01 1.0000000000000000e+01
ITEM: ENTRIES index c_bondedatomid1 c_bondedatomid2 c_btype
1 19 20 1 
2 21 29 2 
3 18 28 2 
4 18 20 2 
5 29 30 1 
6 20 21 1 
7 16 17 1 
8 16 29 2 
9 16 19 2 
10 17 18 1 
11 28 29 1 
12 11 12 1 
13 10 11 1 
14 22 23 1 
15 23 24 1 
16 26 27 1 
17 5 6 1 
18 6 7 2 
19 8 9 1 
20 7 8 1 
21 4 5 1 
22 4 8 2 
23 25 26 1 
24 1 2 1 
25 1 15 2 
26 2 3 1 
27 2 13 2 
28 14 15 1 
29 13 14 1 
ITEM: TIMESTEP
65300
ITEM: NUMBER OF ENTRIES
29
ITEM: BOX BOUNDS pp pp pp
-1.0000000000000000e+01 1.0000000000000000e+01
-1.0000000000000000e+01 1.0000000000000000e+01
-1.0000000000000000e+01 1.0000000000000000e+01
ITEM: ENTRIES index c_bondedatomid1 c_bondedatomid2 c_btype
1 19 20 1 
2 21 29 2 
3 18 28 2 
4 18 20 2 
5 29 30 1 
6 20 21 1 
7 16 17 1 
8 16 29 2 
9 16 19 2 
10 17 18 1 
11 28 29 1 
12 11 12 1 
13 10 11 1 
14 22 23 1 
15 23 24 1 
16 26 27 1 
17 5 6 1 
18 6 7 2 
19 8 9 1 
20 7 8 1 
21 4 5 1 
22 4 8 2 
23 25 26 1 
24 1 2 1 
25 1 15 2 
26 2 3 1 
27 2 13 2 
28 14 15 1 
29 13 14 1 
ITEM: TIMESTEP
65400
ITEM: NUMBER OF ENTRIES
29
ITEM: BOX BOUNDS pp pp pp
-1.0000000000000000e+01 1.0000000000000000e+01
-1.0000000000000000e+01 1.0000000000000000e+01
-1.0000000000000000e+01 1.0000000000000000e+01
ITEM: ENTRIES index c_bondedatomid1 c_bondedatomid2 c_btype
1 19 20 1 
2 21 29 2 
3 18 28 2 
4 18 20 2 
5 29 30 1 
6 20 21 1 
7 16 17 1 
8 16 29 2 
9 16 19 2 
10 17 18 1 
11 28 29 1 
12 11 12 1 
13 10 11 1 
14 22 23 1 
15 23 24 1 
16 26 27 1 
17 5 6 1 
18 6 7 2 
19 8 9 1 
20 7 8 1 
21 4 5 1 
22 4 8 2 
23 25 26 1 
24 1 2 1 
25 1 15 2 
26 2 3 1 
27 2 13 2 
28 14 15 1 
29 13 14 1 
ITEM: TIMESTEP
65500
ITEM: NUMBER OF ENTRIES
29
ITEM: BOX BOUNDS pp pp pp
-1.0000000000000000e+01 1.0000000000000000e+01
-1.0000000000000000e+01 1.0000000000000000e+01
-1.0000000000000000e+01 1.0000000000000000e+01
ITEM: ENTRIES index c_bondedatomid1 c_bondedatomid2 c_btype
1 19 20 1 
2 21 29 2 
3 18 28 2 
4 18 20 2 
5 29 30 1 
6 20 21 1 
7 16 17 1 
8 16 29 2 
9 16 19 2 
10 17 18 1 
11 28 29 1 
12 11 12 1 
13 10 11 1 
14 22 23 1 
15 23 24 1 
16 26 27 1 
17 5 6 1 
18 6 7 2 
19 8 9 1 
20 7 8 1 
21 4 5 1 
22 4 8 2 
23 25 26 1 
24 1 2 1 
25 1 15 2 
26 2 3 1 
27 2 13 2 
28 14 15 1 
29 13 14 1 
ITEM: TIMESTEP
65600
ITEM: NUMBER OF ENTRIES
29
ITEM: BOX BOUNDS pp pp pp
-1.0000000000000000e+01 1.0000000000000000e+01
-1.0000000000000000e+01 1.0000000000000000e+01
-1.0000000000000000e+01 1.0000000000000000e+01
ITEM: ENTRIES index c_bondedatomid1 c_bondedatomid2 c_btype
1 19 20 1 
2 21 29 2 
3 18 28 2 
4 18 20 2 
5 29 30 1 
6 20 21 1 
7 16 17 1 
8 16 29 2 
9 16 19 2 
10 17 18 1 
11 28 29 1 
12 11 12 1 
13 10 11 1 
14 22 23 1 
15 23 24 1 
16 26 27 1 
17 5 6 1 
18 6 7 2 
19 8 9 1 
20 7 8 1 
21 4 5 1 
22 4 8 2 
23 25 26 1 
24 1 2 1 
25 1 15 2 
26 2 3 1 
27 2 13 2 
28 14 15 1 
29 13 14 1 
ITEM: TIMESTEP
65700
ITEM: NUMBER OF ENTRIES
29
ITEM: BOX BOUNDS pp pp pp
-1.0000000000000000e+01 1.0000000000000000e+01
-1.0000000000000000e+01 1.0000000000000000e+01
-1.0000000000000000e+01 1.0000000000000000e+01
ITEM: ENTRIES index c_bondedatomid1 c_bondedatomid2 c_btype
1 19 20 1 
2 21 29 2 
3 18 28 2 
4 18 20 2 
5 29 30 1 
6 20 21 1 
7 16 17 1 
8 16 29 2 
9 16 19 2 
10 17 18 1 
11 28 29 1 
12 11 12 1 
13 10 11 1 
14 22 23 1 
15 23 24 1 
16 26 27 1 
17 5 6 1 
18 6 7 2 
19 8 9 1 
20 7 8 1 
21 4 5 1 
22 4 8 2 
23 25 26 1 
24 1 2 1 
25 1 15 2 
26 2 3 1 
27 2 13 2 
28 14 15 1 
29 13 14 1 
ITEM: TIMESTEP
65800
ITEM: NUMBER OF ENTRIES
29
ITEM: BOX BOUNDS pp pp pp
-1.0000000000000000e+01 1.0000000000000000e+01
-1.0000000000000000e+01 1.0000000000000000e+01
-1.0000000000000000e+01 1.0000000000000000e+01
ITEM: ENTRIES index c_bondedatomid1 c_bondedatomid2 c_btype
1 19 20 1 
2 21 29 2 
3 18 28 2 
4 18 20 2 
5 29 30 1 
6 20 21 1 
7 16 17 1 
8 16 29 2 
9 16 19 2 
10 17 18 1 
11 28 29 1 
12 11 12 1 
13 10 11 1 
14 22 23 1 
15 23 24 1 
16 26 27 1 
17 5 6 1 
18 6 7 2 
19 8 9 1 
20 7 8 1 
21 4 5 1 
22 4 8 2 
23 25 26 1 
24 1 2 1 
25 1 15 2 
26 2 3 1 
27 2 13 2 
28 14 15 1 
29 13 14 1 
ITEM: TIMESTEP
65900
ITEM: NUMBER OF ENTRIES
29
ITEM: BOX BOUNDS pp pp pp
-1.0000000000000000e+01 1.0000000000000000e+01
-1.0000000000000000e+01 1.0000000000000000e+01
-1.0000000000000000e+01 1.0000000000000000e+01
ITEM: ENTRIES index c_bondedatomid1 c_bondedatomid2 c_btype
1 19 20 1 
2 21 29 2 
3 18 28 2 
4 18 20 2 
5 29 30 1 
6 20 21 1 
7 16 17 1 
8 16 29 2 
9 16 19 2 
10 17 18 1 
11 28 29 1 
12 11 12 1 
13 10 11 1 
14 22 23 1 
15 23 24 1 
16 26 27 1 
17 5 6 1 
18 6 7 2 
19 8 9 1 
20 7 8 1 
21 4 5 1 
22 4 8 2 
23 25 26 1 
24 1 2 1 
25 1 15 2 
26 2 3 1 
27 2 13 2 
28 14 15 1 
29 13 14 1 
ITEM: TIMESTEP
66000
ITEM: NUMBER OF ENTRIES
29
ITEM: BOX BOUNDS pp pp pp
-1.0000000000000000e+01 1.0000000000000000e+01
-1.0000000000000000e+01 1.0000000000000000e+01
-1.0000000000000000e+01 1.0000000000000000e+01
ITEM: ENTRIES index c_bondedatomid1 c_bondedatomid2 c_btype
1 19 20 1 
2 21 29 2 
3 18 28 2 
4 18 20 2 
5 29 30 1 
6 20 21 1 
7 16 17 1 
8 16 29 2 
9 16 19 2 
10 17 18 1 
11 28 29 1 
12 11 12 1 
13 10 11 1 
14 22 23 1 
15 23 24 1 
16 26 27 1 
17 5 6 1 
18 6 7 2 
19 8 9 1 
20 7 8 1 
21 4 5 1 
22 4 8 2 
23 25 26 1 
24 1 2 1 
25 1 15 2 
26 2 3 1 
27 2 13 2 
28 14 15 1 
29 13 14 1 
ITEM: TIMESTEP
66100
ITEM: NUMBER OF ENTRIES
29
ITEM: BOX BOUNDS pp pp pp
-1.0000000000000000e+01 1.0000000000000000e+01
-1.0000000000000000e+01 1.0000000000000000e+01
-1.0000000000000000e+01 1.0000000000000000e+01
ITEM: ENTRIES index c_bondedatomid1 c_bondedatomid2 c_btype
1 19 20 1 
2 21 29 2 
3 18 28 2 
4 18 20 2 
5 29 30 1 
6 20 21 1 
7 16 17 1 
8 16 29 2 
9 16 19 2 
10 17 18 1 
11 28 29 1 
12 11 12 1 
13 10 11 1 
14 22 23 1 
15 23 24 1 
16 26 27 1 
17 5 6 1 
18 6 7 2 
19 8 9 1 
20 7 8 1 
21 4 5 1 
22 4 8 2 
23 25 26 1 
24 1 2 1 
25 1 15 2 
26 2 3 1 
27 2 13 2 
28 14 15 1 
29 13 14 1 
ITEM: TIMESTEP
66200
ITEM: NUMBER OF ENTRIES
29
ITEM: BOX BOUNDS pp pp pp
-1.0000000000000000e+01 1.0000000000000000e+01
-1.0000000000000000e+01 1.0000000000000000e+01
-1.0000000000000000e+01 1.0000000000000000e+01
ITEM: ENTRIES index c_bondedatomid1 c_bondedatomid2 c_btype
1 19 20 1 
2 21 29 2 
3 18 28 2 
4 18 20 2 
5 29 30 1 
6 20 21 1 
7 16 17 1 
8 16 29 2 
9 16 19 2 
10 28 29 1 
11 11 12 1 
12 10 11 1 
13 22 23 1 
14 23 24 1 
15 5 6 1 
16 7 8 1 
17 26 27 1 
18 6 7 2 
19 8 9 1 
20 4 5 1 
21 4 8 2 
22 25 26 1 
23 17 18 1 
24 1 2 1 
25 1 15 2 
26 2 3 1 
27 2 13 2 
28 14 15 1 
29 13 14 1 
ITEM: TIMESTEP
66300
ITEM: NUMBER OF ENTRIES
29
ITEM: BOX BOUNDS pp pp pp
-1.0000000000000000e+01 1.0000000000000000e+01
-1.0000000000000000e+01 1.0000000000000000e+01
-1.0000000000000000e+01 1.0000000000000000e+01
ITEM: ENTRIES index c_bondedatomid1 c_bondedatomid2 c_btype
1 19 20 1 
2 21 29 2 
3 18 28 2 
4 18 20 2 
5 29 30 1 
6 20 21 1 
7 16 17 1 
8 16 29 2 
9 16 19 2 
10 28 29 1 
11 11 12 1 
12 10 11 1 
13 22 23 1 
14 23 24 1 
15 5 6 1 
16 7 8 1 
17 26 27 1 
18 6 7 2 
19 8 9 1 
20 4 5 1 
21 4 8 2 
22 25 26 1 
23 17 18 1 
24 1 2 1 
25 1 15 2 
26 2 3 1 
27 2 13 2 
28 14 15 1 
29 13 14 1 
ITEM: TIMESTEP
66400
ITEM: NUMBER OF ENTRIES
29
ITEM: BOX BOUNDS pp pp pp
-1.0000000000000000e+01 1.0000000000000000e+01
-1.0000000000000000e+01 1.0000000000000000e+01
-1.0000000000000000e+01 1.0000000000000000e+01
ITEM: ENTRIES index c_bondedatomid1 c_bondedatomid2 c_btype
1 19 20 1 
2 21 29 2 
3 18 28 2 
4 18 20 2 
5 29 30 1 
6 20 21 1 
7 16 17 1 
8 16 29 2 
9 16 19 2 
10 28 29 1 
11 11 12 1 
12 10 11 1 
13 22 23 1 
14 23 24 1 
15 5 6 1 
16 7 8 1 
17 26 27 1 
18 6 7 2 
19 8 9 1 
20 4 5 1 
21 4 8 2 
22 25 26 1 
23 17 18 1 
24 1 2 1 
25 1 15 2 
26 2 3 1 
27 2 13 2 
28 14 15 1 
29 13 14 1 
ITEM: TIMESTEP
66500
ITEM: NUMBER OF ENTRIES
29
ITEM: BOX BOUNDS pp pp pp
-1.0000000000000000e+01 1.0000000000000000e+01
-1.0000000000000000e+01 1.0000000000000000e+01
-1.0000000000000000e+01 1.0000000000000000e+01
ITEM: ENTRIES index c_bondedatomid1 c_bondedatomid2 c_btype
1 19 20 1 
2 21 29 2 
3 18 28 2 
4 18 20 2 
5 29 30 1 
6 20 21 1 
7 16 17 1 
8 16 29 2 
9 16 19 2 
10 28 29 1 
11 11 12 1 
12 10 11 1 
13 22 23 1 
14 23 24 1 
15 5 6 1 
16 7 8 1 
17 26 27 1 
18 6 7 2 
19 8 9 1 
20 4 5 1 
21 4 8 2 
22 25 26 1 
23 17 18 1 
24 1 2 1 
25 1 15 2 
26 2 3 1 
27 2 13 2 
28 14 15 1 
29 13 14 1 
ITEM: TIMESTEP
66600
ITEM: NUMBER OF ENTRIES
29
ITEM: BOX BOUNDS pp pp pp
-1.0000000000000000e+01 1.0000000000000000e+01
-1.0000000000000000e+01 1.0000000000000000e+01
-1.0000000000000000e+01 1.0000000000000000e+01
ITEM: ENTRIES index c_bondedatomid1 c_bondedatomid2 c_btype
1 19 20 1 
2 21 29 2 
3 18 28 2 
4 18 20 2 
5 29 30 1 
6 20 21 1 
7 16 17 1 
8 16 29 2 
9 16 19 2 
10 28 29 1 
11 11 12 1 
12 10 11 1 
13 22 23 1 
14 23 24 1 
15 5 6 1 
16 7 8 1 
17 26 27 1 
18 6 7 2 
19 8 9 1 
20 4 5 1 
21 4 8 2 
22 25 26 1 
23 17 18 1 
24 1 2 1 
25 1 15 2 
26 2 3 1 
27 2 13 2 
28 14 15 1 
29 13 14 1 
ITEM: TIMESTEP
66700
ITEM: NUMBER OF ENTRIES
29
ITEM: BOX BOUNDS pp pp pp
-1.0000000000000000e+01 1.0000000000000000e+01
-1.0000000000000000e+01 1.0000000000000000e+01
-1.0000000000000000e+01 1.0000000000000000e+01
ITEM: ENTRIES index c_bondedatomid1 c_bondedatomid2 c_btype
1 19 20 1 
2 21 29 2 
3 18 28 2 
4 18 20 2 
5 29 30 1 
6 20 21 1 
7 16 17 1 
8 16 29 2 
9 16 19 2 
10 28 29 1 
11 11 12 1 
12 10 11 1 
13 22 23 1 
14 23 24 1 
15 5 6 1 
16 7 8 1 
17 26 27 1 
18 6 7 2 
19 8 9 1 
20 4 5 1 
21 4 8 2 
22 25 26 1 
23 17 18 1 
24 1 2 1 
25 1 15 2 
26 2 3 1 
27 2 13 2 
28 14 15 1 
29 13 14 1 
ITEM: TIMESTEP
66800
ITEM: NUMBER OF ENTRIES
29
ITEM: BOX BOUNDS pp pp pp
-1.0000000000000000e+01 1.0000000000000000e+01
-1.0000000000000000e+01 1.0000000000000000e+01
-1.0000000000000000e+01 1.0000000000000000e+01
ITEM: ENTRIES index c_bondedatomid1 c_bondedatomid2 c_btype
1 19 20 1 
2 21 29 2 
3 18 28 2 
4 18 20 2 
5 29 30 1 
6 20 21 1 
7 16 17 1 
8 16 29 2 
9 16 19 2 
10 28 29 1 
11 11 12 1 
12 10 11 1 
13 22 23 1 
14 23 24 1 
15 5 6 1 
16 7 8 1 
17 26 27 1 
18 6 7 2 
19 8 9 1 
20 4 5 1 
21 4 8 2 
22 25 26 1 
23 17 18 1 
24 1 2 1 
25 1 15 2 
26 2 3 1 
27 2 13 2 
28 14 15 1 
29 13 14 1 
ITEM: TIMESTEP
66900
ITEM: NUMBER OF ENTRIES
29
ITEM: BOX BOUNDS pp pp pp
-1.0000000000000000e+01 1.0000000000000000e+01
-1.0000000000000000e+01 1.0000000000000000e+01
-1.0000000000000000e+01 1.0000000000000000e+01
ITEM: ENTRIES index c_bondedatomid1 c_bondedatomid2 c_btype
1 19 20 1 
2 21 29 2 
3 18 28 2 
4 18 20 2 
5 29 30 1 
6 20 21 1 
7 16 17 1 
8 16 29 2 
9 16 19 2 
10 28 29 1 
11 11 12 1 
12 10 11 1 
13 22 23 1 
14 23 24 1 
15 5 6 1 
16 7 8 1 
17 26 27 1 
18 6 7 2 
19 8 9 1 
20 4 5 1 
21 4 8 2 
22 25 26 1 
23 17 18 1 
24 1 2 1 
25 1 15 2 
26 2 3 1 
27 2 13 2 
28 14 15 1 
29 13 14 1 
ITEM: TIMESTEP
67000
ITEM: NUMBER OF ENTRIES
29
ITEM: BOX BOUNDS pp pp pp
-1.0000000000000000e+01 1.0000000000000000e+01
-1.0000000000000000e+01 1.0000000000000000e+01
-1.0000000000000000e+01 1.0000000000000000e+01
ITEM: ENTRIES index c_bondedatomid1 c_bondedatomid2 c_btype
1 19 20 1 
2 21 29 2 
3 18 28 2 
4 18 20 2 
5 29 30 1 
6 20 21 1 
7 16 17 1 
8 16 29 2 
9 16 19 2 
10 28 29 1 
11 11 12 1 
12 10 11 1 
13 22 23 1 
14 23 24 1 
15 5 6 1 
16 7 8 1 
17 26 27 1 
18 6 7 2 
19 8 9 1 
20 4 5 1 
21 4 8 2 
22 25 26 1 
23 17 18 1 
24 1 2 1 
25 1 15 2 
26 2 3 1 
27 2 13 2 
28 14 15 1 
29 13 14 1 
ITEM: TIMESTEP
67100
ITEM: NUMBER OF ENTRIES
29
ITEM: BOX BOUNDS pp pp pp
-1.0000000000000000e+01 1.0000000000000000e+01
-1.0000000000000000e+01 1.0000000000000000e+01
-1.0000000000000000e+01 1.0000000000000000e+01
ITEM: ENTRIES index c_bondedatomid1 c_bondedatomid2 c_btype
1 19 20 1 
2 21 29 2 
3 18 28 2 
4 18 20 2 
5 29 30 1 
6 20 21 1 
7 16 17 1 
8 16 29 2 
9 16 19 2 
10 11 12 1 
11 10 11 1 
12 22 23 1 
13 23 24 1 
14 7 8 1 
15 6 7 2 
16 8 9 1 
17 4 5 1 
18 4 8 2 
19 26 27 1 
20 5 6 1 
21 25 26 1 
22 28 29 1 
23 17 18 1 
24 1 2 1 
25 1 15 2 
26 2 3 1 
27 2 13 2 
28 14 15 1 
29 13 14 1 
ITEM: TIMESTEP
67200
ITEM: NUMBER OF ENTRIES
29
ITEM: BOX BOUNDS pp pp pp
-1.0000000000000000e+01 1.0000000000000000e+01
-1.0000000000000000e+01 1.0000000000000000e+01
-1.0000000000000000e+01 1.0000000000000000e+01
ITEM: ENTRIES index c_bondedatomid1 c_bondedatomid2 c_btype
1 19 20 1 
2 21 29 2 
3 18 28 2 
4 18 20 2 
5 29 30 1 
6 20 21 1 
7 16 17 1 
8 16 29 2 
9 16 19 2 
10 11 12 1 
11 10 11 1 
12 22 23 1 
13 23 24 1 
14 7 8 1 
15 6 7 2 
16 8 9 1 
17 4 5 1 
18 4 8 2 
19 26 27 1 
20 5 6 1 
21 25 26 1 
22 28 29 1 
23 17 18 1 
24 1 2 1 
25 1 15 2 
26 2 3 1 
27 2 13 2 
28 14 15 1 
29 13 14 1 
ITEM: TIMESTEP
67300
ITEM: NUMBER OF ENTRIES
29
ITEM: BOX BOUNDS pp pp pp
-1.0000000000000000e+01 1.0000000000000000e+01
-1.0000000000000000e+01 1.0000000000000000e+01
-1.0000000000000000e+01 1.0000000000000000e+01
ITEM: ENTRIES index c_bondedatomid1 c_bondedatomid2 c_btype
1 19 20 1 
2 21 29 2 
3 18 28 2 
4 18 20 2 
5 29 30 1 
6 20 21 1 
7 16 17 1 
8 16 29 2 
9 16 19 2 
10 11 12 1 
11 10 11 1 
12 22 23 1 
13 23 24 1 
14 7 8 1 
15 6 7 2 
16 8 9 1 
17 4 5 1 
18 4 8 2 
19 26 27 1 
20 5 6 1 
21 25 26 1 
22 28 29 1 
23 17 18 1 
24 1 2 1 
25 1 15 2 
26 2 3 1 
27 2 13 2 
28 14 15 1 
29 13 14 1 
ITEM: TIMESTEP
67400
ITEM: NUMBER OF ENTRIES
29
ITEM: BOX BOUNDS pp pp pp
-1.0000000000000000e+01 1.0000000000000000e+01
-1.0000000000000000e+01 1.0000000000000000e+01
-1.0000000000000000e+01 1.0000000000000000e+01
ITEM: ENTRIES index c_bondedatomid1 c_bondedatomid2 c_btype
1 19 20 1 
2 21 29 2 
3 18 28 2 
4 18 20 2 
5 29 30 1 
6 20 21 1 
7 16 17 1 
8 16 29 2 
9 16 19 2 
10 11 12 1 
11 10 11 1 
12 22 23 1 
13 23 24 1 
14 7 8 1 
15 6 7 2 
16 8 9 1 
17 4 5 1 
18 4 8 2 
19 26 27 1 
20 5 6 1 
21 25 26 1 
22 28 29 1 
23 17 18 1 
24 1 2 1 
25 1 15 2 
26 2 3 1 
27 2 13 2 
28 14 15 1 
29 13 14 1 
ITEM: TIMESTEP
67500
ITEM: NUMBER OF ENTRIES
29
ITEM: BOX BOUNDS pp pp pp
-1.0000000000000000e+01 1.0000000000000000e+01
-1.0000000000000000e+01 1.0000000000000000e+01
-1.0000000000000000e+01 1.0000000000000000e+01
ITEM: ENTRIES index c_bondedatomid1 c_bondedatomid2 c_btype
1 19 20 1 
2 21 29 2 
3 18 28 2 
4 18 20 2 
5 29 30 1 
6 20 21 1 
7 16 17 1 
8 16 29 2 
9 16 19 2 
10 11 12 1 
11 10 11 1 
12 22 23 1 
13 23 24 1 
14 7 8 1 
15 6 7 2 
16 8 9 1 
17 4 5 1 
18 4 8 2 
19 26 27 1 
20 5 6 1 
21 25 26 1 
22 28 29 1 
23 17 18 1 
24 1 2 1 
25 1 15 2 
26 2 3 1 
27 2 13 2 
28 14 15 1 
29 13 14 1 
ITEM: TIMESTEP
67600
ITEM: NUMBER OF ENTRIES
29
ITEM: BOX BOUNDS pp pp pp
-1.0000000000000000e+01 1.0000000000000000e+01
-1.0000000000000000e+01 1.0000000000000000e+01
-1.0000000000000000e+01 1.0000000000000000e+01
ITEM: ENTRIES index c_bondedatomid1 c_bondedatomid2 c_btype
1 19 20 1 
2 21 29 2 
3 18 28 2 
4 18 20 2 
5 29 30 1 
6 20 21 1 
7 16 17 1 
8 16 29 2 
9 16 19 2 
10 11 12 1 
11 10 11 1 
12 22 23 1 
13 23 24 1 
14 7 8 1 
15 6 7 2 
16 8 9 1 
17 4 5 1 
18 4 8 2 
19 26 27 1 
20 5 6 1 
21 25 26 1 
22 28 29 1 
23 17 18 1 
24 1 2 1 
25 1 15 2 
26 2 3 1 
27 2 13 2 
28 14 15 1 
29 13 14 1 
ITEM: TIMESTEP
67700
ITEM: NUMBER OF ENTRIES
29
ITEM: BOX BOUNDS pp pp pp
-1.0000000000000000e+01 1.0000000000000000e+01
-1.0000000000000000e+01 1.0000000000000000e+01
-1.0000000000000000e+01 1.0000000000000000e+01
ITEM: ENTRIES index c_bondedatomid1 c_bondedatomid2 c_btype
1 19 20 1 
2 21 29 2 
3 18 28 2 
4 18 20 2 
5 29 30 1 
6 20 21 1 
7 16 17 1 
8 16 29 2 
9 16 19 2 
10 11 12 1 
11 10 11 1 
12 22 23 1 
13 23 24 1 
14 7 8 1 
15 6 7 2 
16 8 9 1 
17 4 5 1 
18 4 8 2 
19 26 27 1 
20 5 6 1 
21 25 26 1 
22 28 29 1 
23 17 18 1 
24 1 2 1 
25 1 15 2 
26 2 3 1 
27 2 13 2 
28 14 15 1 
29 13 14 1 
ITEM: TIMESTEP
67800
ITEM: NUMBER OF ENTRIES
29
ITEM: BOX BOUNDS pp pp pp
-1.0000000000000000e+01 1.0000000000000000e+01
-1.0000000000000000e+01 1.0000000000000000e+01
-1.0000000000000000e+01 1.0000000000000000e+01
ITEM: ENTRIES index c_bondedatomid1 c_bondedatomid2 c_btype
1 19 20 1 
2 21 29 2 
3 18 28 2 
4 18 20 2 
5 29 30 1 
6 20 21 1 
7 16 17 1 
8 16 29 2 
9 16 19 2 
10 11 12 1 
11 10 11 1 
12 22 23 1 
13 23 24 1 
14 7 8 1 
15 6 7 2 
16 8 9 1 
17 4 5 1 
18 4 8 2 
19 26 27 1 
20 5 6 1 
21 25 26 1 
22 28 29 1 
23 17 18 1 
24 1 2 1 
25 1 15 2 
26 2 3 1 
27 2 13 2 
28 14 15 1 
29 13 14 1 
ITEM: TIMESTEP
67900
ITEM: NUMBER OF ENTRIES
29
ITEM: BOX BOUNDS pp pp pp
-1.0000000000000000e+01 1.0000000000000000e+01
-1.0000000000000000e+01 1.0000000000000000e+01
-1.0000000000000000e+01 1.0000000000000000e+01
ITEM: ENTRIES index c_bondedatomid1 c_bondedatomid2 c_btype
1 19 20 1 
2 21 29 2 
3 18 28 2 
4 18 20 2 
5 29 30 1 
6 20 21 1 
7 16 17 1 
8 16 29 2 
9 16 19 2 
10 11 12 1 
11 10 11 1 
12 22 23 1 
13 23 24 1 
14 7 8 1 
15 6 7 2 
16 8 9 1 
17 4 5 1 
18 4 8 2 
19 26 27 1 
20 5 6 1 
21 25 26 1 
22 28 29 1 
23 17 18 1 
24 1 2 1 
25 1 15 2 
26 2 3 1 
27 2 13 2 
28 14 15 1 
29 13 14 1 
ITEM: TIMESTEP
68000
ITEM: NUMBER OF ENTRIES
29
ITEM: BOX BOUNDS pp pp pp
-1.0000000000000000e+01 1.0000000000000000e+01
-1.0000000000000000e+01 1.0000000000000000e+01
-1.0000000000000000e+01 1.0000000000000000e+01
ITEM: ENTRIES index c_bondedatomid1 c_bondedatomid2 c_btype
1 19 20 1 
2 21 29 2 
3 18 28 2 
4 18 20 2 
5 29 30 1 
6 20 21 1 
7 16 17 1 
8 16 29 2 
9 16 19 2 
10 11 12 1 
11 10 11 1 
12 22 23 1 
13 23 24 1 
14 7 8 1 
15 6 7 2 
16 8 9 1 
17 4 5 1 
18 4 8 2 
19 26 27 1 
20 5 6 1 
21 25 26 1 
22 28 29 1 
23 17 18 1 
24 1 2 1 
25 1 15 2 
26 2 3 1 
27 2 13 2 
28 14 15 1 
29 13 14 1 
ITEM: TIMESTEP
68100
ITEM: NUMBER OF ENTRIES
29
ITEM: BOX BOUNDS pp pp pp
-1.0000000000000000e+01 1.0000000000000000e+01
-1.0000000000000000e+01 1.0000000000000000e+01
-1.0000000000000000e+01 1.0000000000000000e+01
ITEM: ENTRIES index c_bondedatomid1 c_bondedatomid2 c_btype
1 19 20 1 
2 29 30 1 
3 20 21 1 
4 16 17 1 
5 16 29 2 
6 16 19 2 
7 28 29 1 
8 17 18 1 
9 11 12 1 
10 10 11 1 
11 22 23 1 
12 23 24 1 
13 7 8 1 
14 6 7 2 
15 4 5 1 
16 4 8 2 
17 5 6 1 
18 26 27 1 
19 25 26 1 
20 8 9 1 
21 1 2 1 
22 1 15 2 
23 21 29 2 
24 18 28 2 
25 18 20 2 
26 2 3 1 
27 2 13 2 
28 14 15 1 
29 13 14 1 
ITEM: TIMESTEP
68200
ITEM: NUMBER OF ENTRIES
29
ITEM: BOX BOUNDS pp pp pp
-1.0000000000000000e+01 1.0000000000000000e+01
-1.0000000000000000e+01 1.0000000000000000e+01
-1.0000000000000000e+01 1.0000000000000000e+01
ITEM: ENTRIES index c_bondedatomid1 c_bondedatomid2 c_btype
1 19 20 1 
2 29 30 1 
3 20 21 1 
4 16 17 1 
5 16 29 2 
6 16 19 2 
7 28 29 1 
8 17 18 1 
9 11 12 1 
10 10 11 1 
11 22 23 1 
12 23 24 1 
13 7 8 1 
14 6 7 2 
15 4 5 1 
16 4 8 2 
17 5 6 1 
18 26 27 1 
19 25 26 1 
20 8 9 1 
21 1 2 1 
22 1 15 2 
23 21 29 2 
24 18 28 2 
25 18 20 2 
26 2 3 1 
27 2 13 2 
28 14 15 1 
29 13 14 1 
ITEM: TIMESTEP
68300
ITEM: NUMBER OF ENTRIES
29
ITEM: BOX BOUNDS pp pp pp
-1.0000000000000000e+01 1.0000000000000000e+01
-1.0000000000000000e+01 1.0000000000000000e+01
-1.0000000000000000e+01 1.0000000000000000e+01
ITEM: ENTRIES index c_bondedatomid1 c_bondedatomid2 c_btype
1 19 20 1 
2 29 30 1 
3 20 21 1 
4 16 17 1 
5 16 29 2 
6 16 19 2 
7 28 29 1 
8 17 18 1 
9 11 12 1 
10 10 11 1 
11 22 23 1 
12 23 24 1 
13 7 8 1 
14 6 7 2 
15 4 5 1 
16 4 8 2 
17 5 6 1 
18 26 27 1 
19 25 26 1 
20 8 9 1 
21 1 2 1 
22 1 15 2 
23 21 29 2 
24 18 28 2 
25 18 20 2 
26 2 3 1 
27 2 13 2 
28 14 15 1 
29 13 14 1 
ITEM: TIMESTEP
68400
ITEM: NUMBER OF ENTRIES
29
ITEM: BOX BOUNDS pp pp pp
-1.0000000000000000e+01 1.0000000000000000e+01
-1.0000000000000000e+01 1.0000000000000000e+01
-1.0000000000000000e+01 1.0000000000000000e+01
ITEM: ENTRIES index c_bondedatomid1 c_bondedatomid2 c_btype
1 19 20 1 
2 29 30 1 
3 20 21 1 
4 16 17 1 
5 16 29 2 
6 16 19 2 
7 28 29 1 
8 17 18 1 
9 11 12 1 
10 10 11 1 
11 22 23 1 
12 23 24 1 
13 7 8 1 
14 6 7 2 
15 4 5 1 
16 4 8 2 
17 5 6 1 
18 26 27 1 
19 25 26 1 
20 8 9 1 
21 1 2 1 
22 1 15 2 
23 21 29 2 
24 18 28 2 
25 18 20 2 
26 2 3 1 
27 2 13 2 
28 14 15 1 
29 13 14 1 
ITEM: TIMESTEP
68500
ITEM: NUMBER OF ENTRIES
29
ITEM: BOX BOUNDS pp pp pp
-1.0000000000000000e+01 1.0000000000000000e+01
-1.0000000000000000e+01 1.0000000000000000e+01
-1.0000000000000000e+01 1.0000000000000000e+01
ITEM: ENTRIES index c_bondedatomid1 c_bondedatomid2 c_btype
1 19 20 1 
2 29 30 1 
3 20 21 1 
4 16 17 1 
5 16 29 2 
6 16 19 2 
7 28 29 1 
8 17 18 1 
9 11 12 1 
10 10 11 1 
11 22 23 1 
12 23 24 1 
13 7 8 1 
14 6 7 2 
15 4 5 1 
16 4 8 2 
17 5 6 1 
18 26 27 1 
19 25 26 1 
20 8 9 1 
21 1 2 1 
22 1 15 2 
23 21 29 2 
24 18 28 2 
25 18 20 2 
26 2 3 1 
27 2 13 2 
28 14 15 1 
29 13 14 1 
ITEM: TIMESTEP
68600
ITEM: NUMBER OF ENTRIES
29
ITEM: BOX BOUNDS pp pp pp
-1.0000000000000000e+01 1.0000000000000000e+01
-1.0000000000000000e+01 1.0000000000000000e+01
-1.0000000000000000e+01 1.0000000000000000e+01
ITEM: ENTRIES index c_bondedatomid1 c_bondedatomid2 c_btype
1 19 20 1 
2 29 30 1 
3 20 21 1 
4 16 17 1 
5 16 29 2 
6 16 19 2 
7 28 29 1 
8 17 18 1 
9 11 12 1 
10 10 11 1 
11 22 23 1 
12 23 24 1 
13 7 8 1 
14 6 7 2 
15 4 5 1 
16 4 8 2 
17 5 6 1 
18 26 27 1 
19 25 26 1 
20 8 9 1 
21 1 2 1 
22 1 15 2 
23 21 29 2 
24 18 28 2 
25 18 20 2 
26 2 3 1 
27 2 13 2 
28 14 15 1 
29 13 14 1 
ITEM: TIMESTEP
68700
ITEM: NUMBER OF ENTRIES
29
ITEM: BOX BOUNDS pp pp pp
-1.0000000000000000e+01 1.0000000000000000e+01
-1.0000000000000000e+01 1.0000000000000000e+01
-1.0000000000000000e+01 1.0000000000000000e+01
ITEM: ENTRIES index c_bondedatomid1 c_bondedatomid2 c_btype
1 19 20 1 
2 29 30 1 
3 20 21 1 
4 16 17 1 
5 16 29 2 
6 16 19 2 
7 28 29 1 
8 17 18 1 
9 11 12 1 
10 10 11 1 
11 22 23 1 
12 23 24 1 
13 7 8 1 
14 6 7 2 
15 4 5 1 
16 4 8 2 
17 5 6 1 
18 26 27 1 
19 25 26 1 
20 8 9 1 
21 1 2 1 
22 1 15 2 
23 21 29 2 
24 18 28 2 
25 18 20 2 
26 2 3 1 
27 2 13 2 
28 14 15 1 
29 13 14 1 
ITEM: TIMESTEP
68800
ITEM: NUMBER OF ENTRIES
29
ITEM: BOX BOUNDS pp pp pp
-1.0000000000000000e+01 1.0000000000000000e+01
-1.0000000000000000e+01 1.0000000000000000e+01
-1.0000000000000000e+01 1.0000000000000000e+01
ITEM: ENTRIES index c_bondedatomid1 c_bondedatomid2 c_btype
1 19 20 1 
2 29 30 1 
3 20 21 1 
4 16 17 1 
5 16 29 2 
6 16 19 2 
7 28 29 1 
8 17 18 1 
9 11 12 1 
10 10 11 1 
11 22 23 1 
12 23 24 1 
13 7 8 1 
14 6 7 2 
15 4 5 1 
16 4 8 2 
17 5 6 1 
18 26 27 1 
19 25 26 1 
20 8 9 1 
21 1 2 1 
22 1 15 2 
23 21 29 2 
24 18 28 2 
25 18 20 2 
26 2 3 1 
27 2 13 2 
28 14 15 1 
29 13 14 1 
ITEM: TIMESTEP
68900
ITEM: NUMBER OF ENTRIES
29
ITEM: BOX BOUNDS pp pp pp
-1.0000000000000000e+01 1.0000000000000000e+01
-1.0000000000000000e+01 1.0000000000000000e+01
-1.0000000000000000e+01 1.0000000000000000e+01
ITEM: ENTRIES index c_bondedatomid1 c_bondedatomid2 c_btype
1 19 20 1 
2 29 30 1 
3 20 21 1 
4 16 17 1 
5 16 29 2 
6 16 19 2 
7 28 29 1 
8 17 18 1 
9 11 12 1 
10 10 11 1 
11 22 23 1 
12 23 24 1 
13 7 8 1 
14 6 7 2 
15 4 5 1 
16 4 8 2 
17 5 6 1 
18 26 27 1 
19 25 26 1 
20 8 9 1 
21 1 2 1 
22 1 15 2 
23 21 29 2 
24 18 28 2 
25 18 20 2 
26 2 3 1 
27 2 13 2 
28 14 15 1 
29 13 14 1 
ITEM: TIMESTEP
69000
ITEM: NUMBER OF ENTRIES
29
ITEM: BOX BOUNDS pp pp pp
-1.0000000000000000e+01 1.0000000000000000e+01
-1.0000000000000000e+01 1.0000000000000000e+01
-1.0000000000000000e+01 1.0000000000000000e+01
ITEM: ENTRIES index c_bondedatomid1 c_bondedatomid2 c_btype
1 19 20 1 
2 29 30 1 
3 20 21 1 
4 16 17 1 
5 16 29 2 
6 16 19 2 
7 28 29 1 
8 17 18 1 
9 11 12 1 
10 10 11 1 
11 22 23 1 
12 23 24 1 
13 7 8 1 
14 6 7 2 
15 4 5 1 
16 4 8 2 
17 5 6 1 
18 26 27 1 
19 25 26 1 
20 8 9 1 
21 1 2 1 
22 1 15 2 
23 21 29 2 
24 18 28 2 
25 18 20 2 
26 2 3 1 
27 2 13 2 
28 14 15 1 
29 13 14 1 
ITEM: TIMESTEP
69100
ITEM: NUMBER OF ENTRIES
29
ITEM: BOX BOUNDS pp pp pp
-1.0000000000000000e+01 1.0000000000000000e+01
-1.0000000000000000e+01 1.0000000000000000e+01
-1.0000000000000000e+01 1.0000000000000000e+01
ITEM: ENTRIES index c_bondedatomid1 c_bondedatomid2 c_btype
1 19 20 1 
2 29 30 1 
3 20 21 1 
4 16 17 1 
5 16 29 2 
6 16 19 2 
7 28 29 1 
8 17 18 1 
9 11 12 1 
10 10 11 1 
11 22 23 1 
12 23 24 1 
13 7 8 1 
14 6 7 2 
15 4 5 1 
16 4 8 2 
17 5 6 1 
18 26 27 1 
19 25 26 1 
20 8 9 1 
21 1 2 1 
22 1 15 2 
23 21 29 2 
24 18 28 2 
25 18 20 2 
26 2 3 1 
27 2 13 2 
28 14 15 1 
29 13 14 1 
ITEM: TIMESTEP
69200
ITEM: NUMBER OF ENTRIES
29
ITEM: BOX BOUNDS pp pp pp
-1.0000000000000000e+01 1.0000000000000000e+01
-1.0000000000000000e+01 1.0000000000000000e+01
-1.0000000000000000e+01 1.0000000000000000e+01
ITEM: ENTRIES index c_bondedatomid1 c_bondedatomid2 c_btype
1 19 20 1 
2 20 21 1 
3 16 17 1 
4 16 29 2 
5 16 19 2 
6 28 29 1 
7 17 18 1 
8 18 28 2 
9 18 20 2 
10 10 11 1 
11 22 23 1 
12 23 24 1 
13 7 8 1 
14 6 7 2 
15 5 6 1 
16 8 9 1 
17 26 27 1 
18 25 26 1 
19 4 5 1 
20 4 8 2 
21 29 30 1 
22 21 29 2 
23 1 2 1 
24 1 15 2 
25 2 3 1 
26 2 13 2 
27 14 15 1 
28 11 12 1 
29 13 14 1 
ITEM: TIMESTEP
69300
ITEM: NUMBER OF ENTRIES
29
ITEM: BOX BOUNDS pp pp pp
-1.0000000000000000e+01 1.0000000000000000e+01
-1.0000000000000000e+01 1.0000000000000000e+01
-1.0000000000000000e+01 1.0000000000000000e+01
ITEM: ENTRIES index c_bondedatomid1 c_bondedatomid2 c_btype
1 19 20 1 
2 20 21 1 
3 16 17 1 
4 16 29 2 
5 16 19 2 
6 28 29 1 
7 17 18 1 
8 18 28 2 
9 18 20 2 
10 10 11 1 
11 22 23 1 
12 23 24 1 
13 7 8 1 
14 6 7 2 
15 5 6 1 
16 8 9 1 
17 26 27 1 
18 25 26 1 
19 4 5 1 
20 4 8 2 
21 29 30 1 
22 21 29 2 
23 1 2 1 
24 1 15 2 
25 2 3 1 
26 2 13 2 
27 14 15 1 
28 11 12 1 
29 13 14 1 
ITEM: TIMESTEP
69400
ITEM: NUMBER OF ENTRIES
29
ITEM: BOX BOUNDS pp pp pp
-1.0000000000000000e+01 1.0000000000000000e+01
-1.0000000000000000e+01 1.0000000000000000e+01
-1.0000000000000000e+01 1.0000000000000000e+01
ITEM: ENTRIES index c_bondedatomid1 c_bondedatomid2 c_btype
1 19 20 1 
2 20 21 1 
3 16 17 1 
4 16 29 2 
5 16 19 2 
6 28 29 1 
7 17 18 1 
8 18 28 2 
9 18 20 2 
10 10 11 1 
11 22 23 1 
12 23 24 1 
13 7 8 1 
14 6 7 2 
15 5 6 1 
16 8 9 1 
17 26 27 1 
18 25 26 1 
19 4 5 1 
20 4 8 2 
21 29 30 1 
22 21 29 2 
23 1 2 1 
24 1 15 2 
25 2 3 1 
26 2 13 2 
27 14 15 1 
28 11 12 1 
29 13 14 1 
ITEM: TIMESTEP
69500
ITEM: NUMBER OF ENTRIES
29
ITEM: BOX BOUNDS pp pp pp
-1.0000000000000000e+01 1.0000000000000000e+01
-1.0000000000000000e+01 1.0000000000000000e+01
-1.0000000000000000e+01 1.0000000000000000e+01
ITEM: ENTRIES index c_bondedatomid1 c_bondedatomid2 c_btype
1 19 20 1 
2 20 21 1 
3 16 17 1 
4 16 29 2 
5 16 19 2 
6 28 29 1 
7 17 18 1 
8 18 28 2 
9 18 20 2 
10 10 11 1 
11 22 23 1 
12 23 24 1 
13 7 8 1 
14 6 7 2 
15 5 6 1 
16 8 9 1 
17 26 27 1 
18 25 26 1 
19 4 5 1 
20 4 8 2 
21 29 30 1 
22 21 29 2 
23 1 2 1 
24 1 15 2 
25 2 3 1 
26 2 13 2 
27 14 15 1 
28 11 12 1 
29 13 14 1 
ITEM: TIMESTEP
69600
ITEM: NUMBER OF ENTRIES
29
ITEM: BOX BOUNDS pp pp pp
-1.0000000000000000e+01 1.0000000000000000e+01
-1.0000000000000000e+01 1.0000000000000000e+01
-1.0000000000000000e+01 1.0000000000000000e+01
ITEM: ENTRIES index c_bondedatomid1 c_bondedatomid2 c_btype
1 19 20 1 
2 20 21 1 
3 16 17 1 
4 16 29 2 
5 16 19 2 
6 28 29 1 
7 17 18 1 
8 18 28 2 
9 18 20 2 
10 10 11 1 
11 22 23 1 
12 23 24 1 
13 7 8 1 
14 6 7 2 
15 5 6 1 
16 8 9 1 
17 26 27 1 
18 25 26 1 
19 4 5 1 
20 4 8 2 
21 29 30 1 
22 21 29 2 
23 1 2 1 
24 1 15 2 
25 2 3 1 
26 2 13 2 
27 14 15 1 
28 11 12 1 
29 13 14 1 
ITEM: TIMESTEP
69700
ITEM: NUMBER OF ENTRIES
29
ITEM: BOX BOUNDS pp pp pp
-1.0000000000000000e+01 1.0000000000000000e+01
-1.0000000000000000e+01 1.0000000000000000e+01
-1.0000000000000000e+01 1.0000000000000000e+01
ITEM: ENTRIES index c_bondedatomid1 c_bondedatomid2 c_btype
1 19 20 1 
2 20 21 1 
3 16 17 1 
4 16 29 2 
5 16 19 2 
6 28 29 1 
7 17 18 1 
8 18 28 2 
9 18 20 2 
10 10 11 1 
11 22 23 1 
12 23 24 1 
13 7 8 1 
14 6 7 2 
15 5 6 1 
16 8 9 1 
17 26 27 1 
18 25 26 1 
19 4 5 1 
20 4 8 2 
21 29 30 1 
22 21 29 2 
23 1 2 1 
24 1 15 2 
25 2 3 1 
26 2 13 2 
27 14 15 1 
28 11 12 1 
29 13 14 1 
ITEM: TIMESTEP
69800
ITEM: NUMBER OF ENTRIES
29
ITEM: BOX BOUNDS pp pp pp
-1.0000000000000000e+01 1.0000000000000000e+01
-1.0000000000000000e+01 1.0000000000000000e+01
-1.0000000000000000e+01 1.0000000000000000e+01
ITEM: ENTRIES index c_bondedatomid1 c_bondedatomid2 c_btype
1 19 20 1 
2 20 21 1 
3 16 17 1 
4 16 29 2 
5 16 19 2 
6 28 29 1 
7 17 18 1 
8 18 28 2 
9 18 20 2 
10 10 11 1 
11 22 23 1 
12 23 24 1 
13 7 8 1 
14 6 7 2 
15 5 6 1 
16 8 9 1 
17 26 27 1 
18 25 26 1 
19 4 5 1 
20 4 8 2 
21 29 30 1 
22 21 29 2 
23 1 2 1 
24 1 15 2 
25 2 3 1 
26 2 13 2 
27 14 15 1 
28 11 12 1 
29 13 14 1 
ITEM: TIMESTEP
69900
ITEM: NUMBER OF ENTRIES
29
ITEM: BOX BOUNDS pp pp pp
-1.0000000000000000e+01 1.0000000000000000e+01
-1.0000000000000000e+01 1.0000000000000000e+01
-1.0000000000000000e+01 1.0000000000000000e+01
ITEM: ENTRIES index c_bondedatomid1 c_bondedatomid2 c_btype
1 19 20 1 
2 20 21 1 
3 16 17 1 
4 16 29 2 
5 16 19 2 
6 28 29 1 
7 17 18 1 
8 18 28 2 
9 18 20 2 
10 10 11 1 
11 22 23 1 
12 23 24 1 
13 7 8 1 
14 6 7 2 
15 5 6 1 
16 8 9 1 
17 26 27 1 
18 25 26 1 
19 4 5 1 
20 4 8 2 
21 29 30 1 
22 21 29 2 
23 1 2 1 
24 1 15 2 
25 2 3 1 
26 2 13 2 
27 14 15 1 
28 11 12 1 
29 13 14 1 
ITEM: TIMESTEP
70000
ITEM: NUMBER OF ENTRIES
29
ITEM: BOX BOUNDS pp pp pp
-1.0000000000000000e+01 1.0000000000000000e+01
-1.0000000000000000e+01 1.0000000000000000e+01
-1.0000000000000000e+01 1.0000000000000000e+01
ITEM: ENTRIES index c_bondedatomid1 c_bondedatomid2 c_btype
1 19 20 1 
2 20 21 1 
3 16 17 1 
4 16 29 2 
5 16 19 2 
6 28 29 1 
7 17 18 1 
8 18 28 2 
9 18 20 2 
10 10 11 1 
11 22 23 1 
12 23 24 1 
13 7 8 1 
14 6 7 2 
15 5 6 1 
16 8 9 1 
17 26 27 1 
18 25 26 1 
19 4 5 1 
20 4 8 2 
21 29 30 1 
22 21 29 2 
23 1 2 1 
24 1 15 2 
25 2 3 1 
26 2 13 2 
27 14 15 1 
28 11 12 1 
29 13 14 1 
ITEM: TIMESTEP
70100
ITEM: NUMBER OF ENTRIES
29
ITEM: BOX BOUNDS pp pp pp
-1.0000000000000000e+01 1.0000000000000000e+01
-1.0000000000000000e+01 1.0000000000000000e+01
-1.0000000000000000e+01 1.0000000000000000e+01
ITEM: ENTRIES index c_bondedatomid1 c_bondedatomid2 c_btype
1 18 28 2 
2 18 20 2 
3 19 20 1 
4 20 21 1 
5 16 17 1 
6 16 29 2 
7 16 19 2 
8 28 29 1 
9 29 30 1 
10 21 29 2 
11 22 23 1 
12 23 24 1 
13 7 8 1 
14 8 9 1 
15 4 5 1 
16 4 8 2 
17 25 26 1 
18 26 27 1 
19 6 7 2 
20 5 6 1 
21 17 18 1 
22 10 11 1 
23 1 2 1 
24 1 15 2 
25 2 3 1 
26 2 13 2 
27 14 15 1 
28 11 12 1 
29 13 14 1 
ITEM: TIMESTEP
70200
ITEM: NUMBER OF ENTRIES
29
ITEM: BOX BOUNDS pp pp pp
-1.0000000000000000e+01 1.0000000000000000e+01
-1.0000000000000000e+01 1.0000000000000000e+01
-1.0000000000000000e+01 1.0000000000000000e+01
ITEM: ENTRIES index c_bondedatomid1 c_bondedatomid2 c_btype
1 18 28 2 
2 18 20 2 
3 19 20 1 
4 20 21 1 
5 16 17 1 
6 16 29 2 
7 16 19 2 
8 28 29 1 
9 29 30 1 
10 21 29 2 
11 22 23 1 
12 23 24 1 
13 7 8 1 
14 8 9 1 
15 4 5 1 
16 4 8 2 
17 25 26 1 
18 26 27 1 
19 6 7 2 
20 5 6 1 
21 17 18 1 
22 10 11 1 
23 1 2 1 
24 1 15 2 
25 2 3 1 
26 2 13 2 
27 14 15 1 
28 11 12 1 
29 13 14 1 
ITEM: TIMESTEP
70300
ITEM: NUMBER OF ENTRIES
29
ITEM: BOX BOUNDS pp pp pp
-1.0000000000000000e+01 1.0000000000000000e+01
-1.0000000000000000e+01 1.0000000000000000e+01
-1.0000000000000000e+01 1.0000000000000000e+01
ITEM: ENTRIES index c_bondedatomid1 c_bondedatomid2 c_btype
1 18 28 2 
2 18 20 2 
3 19 20 1 
4 20 21 1 
5 16 17 1 
6 16 29 2 
7 16 19 2 
8 28 29 1 
9 29 30 1 
10 21 29 2 
11 22 23 1 
12 23 24 1 
13 7 8 1 
14 8 9 1 
15 4 5 1 
16 4 8 2 
17 25 26 1 
18 26 27 1 
19 6 7 2 
20 5 6 1 
21 17 18 1 
22 10 11 1 
23 1 2 1 
24 1 15 2 
25 2 3 1 
26 2 13 2 
27 14 15 1 
28 11 12 1 
29 13 14 1 
ITEM: TIMESTEP
70400
ITEM: NUMBER OF ENTRIES
29
ITEM: BOX BOUNDS pp pp pp
-1.0000000000000000e+01 1.0000000000000000e+01
-1.0000000000000000e+01 1.0000000000000000e+01
-1.0000000000000000e+01 1.0000000000000000e+01
ITEM: ENTRIES index c_bondedatomid1 c_bondedatomid2 c_btype
1 18 28 2 
2 18 20 2 
3 19 20 1 
4 20 21 1 
5 16 17 1 
6 16 29 2 
7 16 19 2 
8 28 29 1 
9 29 30 1 
10 21 29 2 
11 22 23 1 
12 23 24 1 
13 7 8 1 
14 8 9 1 
15 4 5 1 
16 4 8 2 
17 25 26 1 
18 26 27 1 
19 6 7 2 
20 5 6 1 
21 17 18 1 
22 10 11 1 
23 1 2 1 
24 1 15 2 
25 2 3 1 
26 2 13 2 
27 14 15 1 
28 11 12 1 
29 13 14 1 
ITEM: TIMESTEP
70500
ITEM: NUMBER OF ENTRIES
29
ITEM: BOX BOUNDS pp pp pp
-1.0000000000000000e+01 1.0000000000000000e+01
-1.0000000000000000e+01 1.0000000000000000e+01
-1.0000000000000000e+01 1.0000000000000000e+01
ITEM: ENTRIES index c_bondedatomid1 c_bondedatomid2 c_btype
1 18 28 2 
2 18 20 2 
3 19 20 1 
4 20 21 1 
5 16 17 1 
6 16 29 2 
7 16 19 2 
8 28 29 1 
9 29 30 1 
10 21 29 2 
11 22 23 1 
12 23 24 1 
13 7 8 1 
14 8 9 1 
15 4 5 1 
16 4 8 2 
17 25 26 1 
18 26 27 1 
19 6 7 2 
20 5 6 1 
21 17 18 1 
22 10 11 1 
23 1 2 1 
24 1 15 2 
25 2 3 1 
26 2 13 2 
27 14 15 1 
28 11 12 1 
29 13 14 1 
ITEM: TIMESTEP
70600
ITEM: NUMBER OF ENTRIES
29
ITEM: BOX BOUNDS pp pp pp
-1.0000000000000000e+01 1.0000000000000000e+01
-1.0000000000000000e+01 1.0000000000000000e+01
-1.0000000000000000e+01 1.0000000000000000e+01
ITEM: ENTRIES index c_bondedatomid1 c_bondedatomid2 c_btype
1 18 28 2 
2 18 20 2 
3 19 20 1 
4 20 21 1 
5 16 17 1 
6 16 29 2 
7 16 19 2 
8 28 29 1 
9 29 30 1 
10 21 29 2 
11 22 23 1 
12 23 24 1 
13 7 8 1 
14 8 9 1 
15 4 5 1 
16 4 8 2 
17 25 26 1 
18 26 27 1 
19 6 7 2 
20 5 6 1 
21 17 18 1 
22 10 11 1 
23 1 2 1 
24 1 15 2 
25 2 3 1 
26 2 13 2 
27 14 15 1 
28 11 12 1 
29 13 14 1 
ITEM: TIMESTEP
70700
ITEM: NUMBER OF ENTRIES
29
ITEM: BOX BOUNDS pp pp pp
-1.0000000000000000e+01 1.0000000000000000e+01
-1.0000000000000000e+01 1.0000000000000000e+01
-1.0000000000000000e+01 1.0000000000000000e+01
ITEM: ENTRIES index c_bondedatomid1 c_bondedatomid2 c_btype
1 18 28 2 
2 18 20 2 
3 19 20 1 
4 20 21 1 
5 16 17 1 
6 16 29 2 
7 16 19 2 
8 28 29 1 
9 29 30 1 
10 21 29 2 
11 22 23 1 
12 23 24 1 
13 7 8 1 
14 8 9 1 
15 4 5 1 
16 4 8 2 
17 25 26 1 
18 26 27 1 
19 6 7 2 
20 5 6 1 
21 17 18 1 
22 10 11 1 
23 1 2 1 
24 1 15 2 
25 2 3 1 
26 2 13 2 
27 14 15 1 
28 11 12 1 
29 13 14 1 
ITEM: TIMESTEP
70800
ITEM: NUMBER OF ENTRIES
29
ITEM: BOX BOUNDS pp pp pp
-1.0000000000000000e+01 1.0000000000000000e+01
-1.0000000000000000e+01 1.0000000000000000e+01
-1.0000000000000000e+01 1.0000000000000000e+01
ITEM: ENTRIES index c_bondedatomid1 c_bondedatomid2 c_btype
1 18 28 2 
2 18 20 2 
3 19 20 1 
4 20 21 1 
5 16 17 1 
6 16 29 2 
7 16 19 2 
8 28 29 1 
9 29 30 1 
10 21 29 2 
11 22 23 1 
12 23 24 1 
13 7 8 1 
14 8 9 1 
15 4 5 1 
16 4 8 2 
17 25 26 1 
18 26 27 1 
19 6 7 2 
20 5 6 1 
21 17 18 1 
22 10 11 1 
23 1 2 1 
24 1 15 2 
25 2 3 1 
26 2 13 2 
27 14 15 1 
28 11 12 1 
29 13 14 1 
ITEM: TIMESTEP
70900
ITEM: NUMBER OF ENTRIES
29
ITEM: BOX BOUNDS pp pp pp
-1.0000000000000000e+01 1.0000000000000000e+01
-1.0000000000000000e+01 1.0000000000000000e+01
-1.0000000000000000e+01 1.0000000000000000e+01
ITEM: ENTRIES index c_bondedatomid1 c_bondedatomid2 c_btype
1 18 28 2 
2 18 20 2 
3 19 20 1 
4 20 21 1 
5 16 17 1 
6 16 29 2 
7 16 19 2 
8 28 29 1 
9 29 30 1 
10 21 29 2 
11 22 23 1 
12 23 24 1 
13 7 8 1 
14 8 9 1 
15 4 5 1 
16 4 8 2 
17 25 26 1 
18 26 27 1 
19 6 7 2 
20 5 6 1 
21 17 18 1 
22 10 11 1 
23 1 2 1 
24 1 15 2 
25 2 3 1 
26 2 13 2 
27 14 15 1 
28 11 12 1 
29 13 14 1 
ITEM: TIMESTEP
71000
ITEM: NUMBER OF ENTRIES
29
ITEM: BOX BOUNDS pp pp pp
-1.0000000000000000e+01 1.0000000000000000e+01
-1.0000000000000000e+01 1.0000000000000000e+01
-1.0000000000000000e+01 1.0000000000000000e+01
ITEM: ENTRIES index c_bondedatomid1 c_bondedatomid2 c_btype
1 18 28 2 
2 18 20 2 
3 19 20 1 
4 20 21 1 
5 16 17 1 
6 16 29 2 
7 16 19 2 
8 28 29 1 
9 29 30 1 
10 21 29 2 
11 22 23 1 
12 23 24 1 
13 7 8 1 
14 8 9 1 
15 4 5 1 
16 4 8 2 
17 25 26 1 
18 26 27 1 
19 6 7 2 
20 5 6 1 
21 17 18 1 
22 10 11 1 
23 1 2 1 
24 1 15 2 
25 2 3 1 
26 2 13 2 
27 14 15 1 
28 11 12 1 
29 13 14 1 
ITEM: TIMESTEP
71100
ITEM: NUMBER OF ENTRIES
29
ITEM: BOX BOUNDS pp pp pp
-1.0000000000000000e+01 1.0000000000000000e+01
-1.0000000000000000e+01 1.0000000000000000e+01
-1.0000000000000000e+01 1.0000000000000000e+01
ITEM: ENTRIES index c_bondedatomid1 c_bondedatomid2 c_btype
1 19 20 1 
2 18 28 2 
3 18 20 2 
4 20 21 1 
5 29 30 1 
6 21 29 2 
7 22 23 1 
8 23 24 1 
9 7 8 1 
10 8 9 1 
11 4 5 1 
12 4 8 2 
13 6 7 2 
14 5 6 1 
15 25 26 1 
16 26 27 1 
17 16 17 1 
18 16 29 2 
19 16 19 2 
20 28 29 1 
21 17 18 1 
22 10 11 1 
23 11 12 1 
24 1 2 1 
25 1 15 2 
26 14 15 1 
27 2 3 1 
28 2 13 2 
29 13 14 1 
ITEM: TIMESTEP
71200
ITEM: NUMBER OF ENTRIES
29
ITEM: BOX BOUNDS pp pp pp
-1.0000000000000000e+01 1.0000000000000000e+01
-1.0000000000000000e+01 1.0000000000000000e+01
-1.0000000000000000e+01 1.0000000000000000e+01
ITEM: ENTRIES index c_bondedatomid1 c_bondedatomid2 c_btype
1 19 20 1 
2 18 28 2 
3 18 20 2 
4 20 21 1 
5 29 30 1 
6 21 29 2 
7 22 23 1 
8 23 24 1 
9 7 8 1 
10 8 9 1 
11 4 5 1 
12 4 8 2 
13 6 7 2 
14 5 6 1 
15 25 26 1 
16 26 27 1 
17 16 17 1 
18 16 29 2 
19 16 19 2 
20 28 29 1 
21 17 18 1 
22 10 11 1 
23 11 12 1 
24 1 2 1 
25 1 15 2 
26 14 15 1 
27 2 3 1 
28 2 13 2 
29 13 14 1 
ITEM: TIMESTEP
71300
ITEM: NUMBER OF ENTRIES
29
ITEM: BOX BOUNDS pp pp pp
-1.0000000000000000e+01 1.0000000000000000e+01
-1.0000000000000000e+01 1.0000000000000000e+01
-1.0000000000000000e+01 1.0000000000000000e+01
ITEM: ENTRIES index c_bondedatomid1 c_bondedatomid2 c_btype
1 19 20 1 
2 18 28 2 
3 18 20 2 
4 20 21 1 
5 29 30 1 
6 21 29 2 
7 22 23 1 
8 23 24 1 
9 7 8 1 
10 8 9 1 
11 4 5 1 
12 4 8 2 
13 6 7 2 
14 5 6 1 
15 25 26 1 
16 26 27 1 
17 16 17 1 
18 16 29 2 
19 16 19 2 
20 28 29 1 
21 17 18 1 
22 10 11 1 
23 11 12 1 
24 1 2 1 
25 1 15 2 
26 14 15 1 
27 2 3 1 
28 2 13 2 
29 13 14 1 
ITEM: TIMESTEP
71400
ITEM: NUMBER OF ENTRIES
29
ITEM: BOX BOUNDS pp pp pp
-1.0000000000000000e+01 1.0000000000000000e+01
-1.0000000000000000e+01 1.0000000000000000e+01
-1.0000000000000000e+01 1.0000000000000000e+01
ITEM: ENTRIES index c_bondedatomid1 c_bondedatomid2 c_btype
1 19 20 1 
2 18 28 2 
3 18 20 2 
4 20 21 1 
5 29 30 1 
6 21 29 2 
7 22 23 1 
8 23 24 1 
9 7 8 1 
10 8 9 1 
11 4 5 1 
12 4 8 2 
13 6 7 2 
14 5 6 1 
15 25 26 1 
16 26 27 1 
17 16 17 1 
18 16 29 2 
19 16 19 2 
20 28 29 1 
21 17 18 1 
22 10 11 1 
23 11 12 1 
24 1 2 1 
25 1 15 2 
26 14 15 1 
27 2 3 1 
28 2 13 2 
29 13 14 1 
ITEM: TIMESTEP
71500
ITEM: NUMBER OF ENTRIES
29
ITEM: BOX BOUNDS pp pp pp
-1.0000000000000000e+01 1.0000000000000000e+01
-1.0000000000000000e+01 1.0000000000000000e+01
-1.0000000000000000e+01 1.0000000000000000e+01
ITEM: ENTRIES index c_bondedatomid1 c_bondedatomid2 c_btype
1 19 20 1 
2 18 28 2 
3 18 20 2 
4 20 21 1 
5 29 30 1 
6 21 29 2 
7 22 23 1 
8 23 24 1 
9 7 8 1 
10 8 9 1 
11 4 5 1 
12 4 8 2 
13 6 7 2 
14 5 6 1 
15 25 26 1 
16 26 27 1 
17 16 17 1 
18 16 29 2 
19 16 19 2 
20 28 29 1 
21 17 18 1 
22 10 11 1 
23 11 12 1 
24 1 2 1 
25 1 15 2 
26 14 15 1 
27 2 3 1 
28 2 13 2 
29 13 14 1 
ITEM: TIMESTEP
71600
ITEM: NUMBER OF ENTRIES
29
ITEM: BOX BOUNDS pp pp pp
-1.0000000000000000e+01 1.0000000000000000e+01
-1.0000000000000000e+01 1.0000000000000000e+01
-1.0000000000000000e+01 1.0000000000000000e+01
ITEM: ENTRIES index c_bondedatomid1 c_bondedatomid2 c_btype
1 19 20 1 
2 18 28 2 
3 18 20 2 
4 20 21 1 
5 29 30 1 
6 21 29 2 
7 22 23 1 
8 23 24 1 
9 7 8 1 
10 8 9 1 
11 4 5 1 
12 4 8 2 
13 6 7 2 
14 5 6 1 
15 25 26 1 
16 26 27 1 
17 16 17 1 
18 16 29 2 
19 16 19 2 
20 28 29 1 
21 17 18 1 
22 10 11 1 
23 11 12 1 
24 1 2 1 
25 1 15 2 
26 14 15 1 
27 2 3 1 
28 2 13 2 
29 13 14 1 
ITEM: TIMESTEP
71700
ITEM: NUMBER OF ENTRIES
29
ITEM: BOX BOUNDS pp pp pp
-1.0000000000000000e+01 1.0000000000000000e+01
-1.0000000000000000e+01 1.0000000000000000e+01
-1.0000000000000000e+01 1.0000000000000000e+01
ITEM: ENTRIES index c_bondedatomid1 c_bondedatomid2 c_btype
1 19 20 1 
2 18 28 2 
3 18 20 2 
4 20 21 1 
5 29 30 1 
6 21 29 2 
7 22 23 1 
8 23 24 1 
9 7 8 1 
10 8 9 1 
11 4 5 1 
12 4 8 2 
13 6 7 2 
14 5 6 1 
15 25 26 1 
16 26 27 1 
17 16 17 1 
18 16 29 2 
19 16 19 2 
20 28 29 1 
21 17 18 1 
22 10 11 1 
23 11 12 1 
24 1 2 1 
25 1 15 2 
26 14 15 1 
27 2 3 1 
28 2 13 2 
29 13 14 1 
ITEM: TIMESTEP
71800
ITEM: NUMBER OF ENTRIES
29
ITEM: BOX BOUNDS pp pp pp
-1.0000000000000000e+01 1.0000000000000000e+01
-1.0000000000000000e+01 1.0000000000000000e+01
-1.0000000000000000e+01 1.0000000000000000e+01
ITEM: ENTRIES index c_bondedatomid1 c_bondedatomid2 c_btype
1 19 20 1 
2 18 28 2 
3 18 20 2 
4 20 21 1 
5 29 30 1 
6 21 29 2 
7 22 23 1 
8 23 24 1 
9 7 8 1 
10 8 9 1 
11 4 5 1 
12 4 8 2 
13 6 7 2 
14 5 6 1 
15 25 26 1 
16 26 27 1 
17 16 17 1 
18 16 29 2 
19 16 19 2 
20 28 29 1 
21 17 18 1 
22 10 11 1 
23 11 12 1 
24 1 2 1 
25 1 15 2 
26 14 15 1 
27 2 3 1 
28 2 13 2 
29 13 14 1 
ITEM: TIMESTEP
71900
ITEM: NUMBER OF ENTRIES
29
ITEM: BOX BOUNDS pp pp pp
-1.0000000000000000e+01 1.0000000000000000e+01
-1.0000000000000000e+01 1.0000000000000000e+01
-1.0000000000000000e+01 1.0000000000000000e+01
ITEM: ENTRIES index c_bondedatomid1 c_bondedatomid2 c_btype
1 19 20 1 
2 18 28 2 
3 18 20 2 
4 20 21 1 
5 29 30 1 
6 21 29 2 
7 22 23 1 
8 23 24 1 
9 7 8 1 
10 8 9 1 
11 4 5 1 
12 4 8 2 
13 6 7 2 
14 5 6 1 
15 25 26 1 
16 26 27 1 
17 16 17 1 
18 16 29 2 
19 16 19 2 
20 28 29 1 
21 17 18 1 
22 10 11 1 
23 11 12 1 
24 1 2 1 
25 1 15 2 
26 14 15 1 
27 2 3 1 
28 2 13 2 
29 13 14 1 
ITEM: TIMESTEP
72000
ITEM: NUMBER OF ENTRIES
29
ITEM: BOX BOUNDS pp pp pp
-1.0000000000000000e+01 1.0000000000000000e+01
-1.0000000000000000e+01 1.0000000000000000e+01
-1.0000000000000000e+01 1.0000000000000000e+01
ITEM: ENTRIES index c_bondedatomid1 c_bondedatomid2 c_btype
1 19 20 1 
2 18 28 2 
3 18 20 2 
4 20 21 1 
5 29 30 1 
6 21 29 2 
7 22 23 1 
8 23 24 1 
9 7 8 1 
10 8 9 1 
11 4 5 1 
12 4 8 2 
13 6 7 2 
14 5 6 1 
15 25 26 1 
16 26 27 1 
17 16 17 1 
18 16 29 2 
19 16 19 2 
20 28 29 1 
21 17 18 1 
22 10 11 1 
23 11 12 1 
24 1 2 1 
25 1 15 2 
26 14 15 1 
27 2 3 1 
28 2 13 2 
29 13 14 1 
ITEM: TIMESTEP
72100
ITEM: NUMBER OF ENTRIES
29
ITEM: BOX BOUNDS pp pp pp
-1.0000000000000000e+01 1.0000000000000000e+01
-1.0000000000000000e+01 1.0000000000000000e+01
-1.0000000000000000e+01 1.0000000000000000e+01
ITEM: ENTRIES index c_bondedatomid1 c_bondedatomid2 c_btype
1 19 20 1 
2 18 28 2 
3 18 20 2 
4 20 21 1 
5 29 30 1 
6 21 29 2 
7 22 23 1 
8 23 24 1 
9 7 8 1 
10 8 9 1 
11 4 5 1 
12 4 8 2 
13 6 7 2 
14 5 6 1 
15 25 26 1 
16 26 27 1 
17 16 17 1 
18 16 29 2 
19 16 19 2 
20 28 29 1 
21 17 18 1 
22 10 11 1 
23 11 12 1 
24 1 2 1 
25 1 15 2 
26 14 15 1 
27 2 3 1 
28 2 13 2 
29 13 14 1 
ITEM: TIMESTEP
72200
ITEM: NUMBER OF ENTRIES
29
ITEM: BOX BOUNDS pp pp pp
-1.0000000000000000e+01 1.0000000000000000e+01
-1.0000000000000000e+01 1.0000000000000000e+01
-1.0000000000000000e+01 1.0000000000000000e+01
ITEM: ENTRIES index c_bondedatomid1 c_bondedatomid2 c_btype
1 19 20 1 
2 29 30 1 
3 21 29 2 
4 20 21 1 
5 28 29 1 
6 17 18 1 
7 23 24 1 
8 7 8 1 
9 8 9 1 
10 4 5 1 
11 4 8 2 
12 6 7 2 
13 5 6 1 
14 22 23 1 
15 25 26 1 
16 26 27 1 
17 16 17 1 
18 16 29 2 
19 16 19 2 
20 18 28 2 
21 18 20 2 
22 10 11 1 
23 11 12 1 
24 13 14 1 
25 1 2 1 
26 1 15 2 
27 14 15 1 
28 2 3 1 
29 2 13 2 
ITEM: TIMESTEP
72300
ITEM: NUMBER OF ENTRIES
29
ITEM: BOX BOUNDS pp pp pp
-1.0000000000000000e+01 1.0000000000000000e+01
-1.0000000000000000e+01 1.0000000000000000e+01
-1.0000000000000000e+01 1.0000000000000000e+01
ITEM: ENTRIES index c_bondedatomid1 c_bondedatomid2 c_btype
1 19 20 1 
2 29 30 1 
3 21 29 2 
4 20 21 1 
5 28 29 1 
6 17 18 1 
7 23 24 1 
8 7 8 1 
9 8 9 1 
10 4 5 1 
11 4 8 2 
12 6 7 2 
13 5 6 1 
14 22 23 1 
15 25 26 1 
16 26 27 1 
17 16 17 1 
18 16 29 2 
19 16 19 2 
20 18 28 2 
21 18 20 2 
22 10 11 1 
23 11 12 1 
24 13 14 1 
25 1 2 1 
26 1 15 2 
27 14 15 1 
28 2 3 1 
29 2 13 2 
ITEM: TIMESTEP
72400
ITEM: NUMBER OF ENTRIES
29
ITEM: BOX BOUNDS pp pp pp
-1.0000000000000000e+01 1.0000000000000000e+01
-1.0000000000000000e+01 1.0000000000000000e+01
-1.0000000000000000e+01 1.0000000000000000e+01
ITEM: ENTRIES index c_bondedatomid1 c_bondedatomid2 c_btype
1 19 20 1 
2 29 30 1 
3 21 29 2 
4 20 21 1 
5 28 29 1 
6 17 18 1 
7 23 24 1 
8 7 8 1 
9 8 9 1 
10 4 5 1 
11 4 8 2 
12 6 7 2 
13 5 6 1 
14 22 23 1 
15 25 26 1 
16 26 27 1 
17 16 17 1 
18 16 29 2 
19 16 19 2 
20 18 28 2 
21 18 20 2 
22 10 11 1 
23 11 12 1 
24 13 14 1 
25 1 2 1 
26 1 15 2 
27 14 15 1 
28 2 3 1 
29 2 13 2 
ITEM: TIMESTEP
72500
ITEM: NUMBER OF ENTRIES
29
ITEM: BOX BOUNDS pp pp pp
-1.0000000000000000e+01 1.0000000000000000e+01
-1.0000000000000000e+01 1.0000000000000000e+01
-1.0000000000000000e+01 1.0000000000000000e+01
ITEM: ENTRIES index c_bondedatomid1 c_bondedatomid2 c_btype
1 19 20 1 
2 29 30 1 
3 21 29 2 
4 20 21 1 
5 28 29 1 
6 17 18 1 
7 23 24 1 
8 7 8 1 
9 8 9 1 
10 4 5 1 
11 4 8 2 
12 6 7 2 
13 5 6 1 
14 22 23 1 
15 25 26 1 
16 26 27 1 
17 16 17 1 
18 16 29 2 
19 16 19 2 
20 18 28 2 
21 18 20 2 
22 10 11 1 
23 11 12 1 
24 13 14 1 
25 1 2 1 
26 1 15 2 
27 14 15 1 
28 2 3 1 
29 2 13 2 
ITEM: TIMESTEP
72600
ITEM: NUMBER OF ENTRIES
29
ITEM: BOX BOUNDS pp pp pp
-1.0000000000000000e+01 1.0000000000000000e+01
-1.0000000000000000e+01 1.0000000000000000e+01
-1.0000000000000000e+01 1.0000000000000000e+01
ITEM: ENTRIES index c_bondedatomid1 c_bondedatomid2 c_btype
1 19 20 1 
2 29 30 1 
3 21 29 2 
4 20 21 1 
5 28 29 1 
6 17 18 1 
7 23 24 1 
8 7 8 1 
9 8 9 1 
10 4 5 1 
11 4 8 2 
12 6 7 2 
13 5 6 1 
14 22 23 1 
15 25 26 1 
16 26 27 1 
17 16 17 1 
18 16 29 2 
19 16 19 2 
20 18 28 2 
21 18 20 2 
22 10 11 1 
23 11 12 1 
24 13 14 1 
25 1 2 1 
26 1 15 2 
27 14 15 1 
28 2 3 1 
29 2 13 2 
ITEM: TIMESTEP
72700
ITEM: NUMBER OF ENTRIES
30
ITEM: BOX BOUNDS pp pp pp
-1.0000000000000000e+01 1.0000000000000000e+01
-1.0000000000000000e+01 1.0000000000000000e+01
-1.0000000000000000e+01 1.0000000000000000e+01
ITEM: ENTRIES index c_bondedatomid1 c_bondedatomid2 c_btype
1 19 20 1 
2 29 30 1 
3 21 29 2 
4 20 21 1 
5 28 29 1 
6 17 18 1 
7 23 24 1 
8 7 8 1 
9 8 9 1 
10 4 5 1 
11 4 8 2 
12 6 7 2 
13 5 6 1 
14 22 23 1 
15 25 26 1 
16 26 27 1 
17 16 17 1 
18 16 29 2 
19 16 19 2 
20 18 28 2 
21 18 20 2 
22 10 11 1 
23 10 20 2 
24 11 12 1 
25 13 14 1 
26 1 2 1 
27 1 15 2 
28 14 15 1 
29 2 3 1 
30 2 13 2 
ITEM: TIMESTEP
72800
ITEM: NUMBER OF ENTRIES
30
ITEM: BOX BOUNDS pp pp pp
-1.0000000000000000e+01 1.0000000000000000e+01
-1.0000000000000000e+01 1.0000000000000000e+01
-1.0000000000000000e+01 1.0000000000000000e+01
ITEM: ENTRIES index c_bondedatomid1 c_bondedatomid2 c_btype
1 19 20 1 
2 29 30 1 
3 21 29 2 
4 20 21 1 
5 28 29 1 
6 17 18 1 
7 23 24 1 
8 7 8 1 
9 8 9 1 
10 4 5 1 
11 4 8 2 
12 6 7 2 
13 5 6 1 
14 22 23 1 
15 25 26 1 
16 26 27 1 
17 16 17 1 
18 16 29 2 
19 16 19 2 
20 18 28 2 
21 18 20 2 
22 10 11 1 
23 10 20 2 
24 11 12 1 
25 13 14 1 
26 1 2 1 
27 1 15 2 
28 14 15 1 
29 2 3 1 
30 2 13 2 
ITEM: TIMESTEP
72900
ITEM: NUMBER OF ENTRIES
30
ITEM: BOX BOUNDS pp pp pp
-1.0000000000000000e+01 1.0000000000000000e+01
-1.0000000000000000e+01 1.0000000000000000e+01
-1.0000000000000000e+01 1.0000000000000000e+01
ITEM: ENTRIES index c_bondedatomid1 c_bondedatomid2 c_btype
1 19 20 1 
2 29 30 1 
3 21 29 2 
4 20 21 1 
5 28 29 1 
6 17 18 1 
7 23 24 1 
8 7 8 1 
9 8 9 1 
10 4 5 1 
11 4 8 2 
12 6 7 2 
13 5 6 1 
14 22 23 1 
15 25 26 1 
16 26 27 1 
17 16 17 1 
18 16 29 2 
19 16 19 2 
20 18 28 2 
21 18 20 2 
22 10 11 1 
23 10 20 2 
24 11 12 1 
25 13 14 1 
26 1 2 1 
27 1 15 2 
28 14 15 1 
29 2 3 1 
30 2 13 2 
ITEM: TIMESTEP
73000
ITEM: NUMBER OF ENTRIES
31
ITEM: BOX BOUNDS pp pp pp
-1.0000000000000000e+01 1.0000000000000000e+01
-1.0000000000000000e+01 1.0000000000000000e+01
-1.0000000000000000e+01 1.0000000000000000e+01
ITEM: ENTRIES index c_bondedatomid1 c_bondedatomid2 c_btype
1 19 20 1 
2 29 30 1 
3 21 29 2 
4 20 21 1 
5 28 29 1 
6 17 18 1 
7 23 24 1 
8 7 8 1 
9 8 9 1 
10 4 5 1 
11 4 8 2 
12 6 7 2 
13 5 6 1 
14 22 23 1 
15 25 26 1 
16 26 27 1 
17 16 17 1 
18 16 29 2 
19 16 19 2 
20 18 28 2 
21 18 20 2 
22 10 11 1 
23 10 20 2 
24 11 12 1 
25 11 28 2 
26 13 14 1 
27 1 2 1 
28 1 15 2 
29 14 15 1 
30 2 3 1 
31 2 13 2 
ITEM: TIMESTEP
73100
ITEM: NUMBER OF ENTRIES
31
ITEM: BOX BOUNDS pp pp pp
-1.0000000000000000e+01 1.0000000000000000e+01
-1.0000000000000000e+01 1.0000000000000000e+01
-1.0000000000000000e+01 1.0000000000000000e+01
ITEM: ENTRIES index c_bondedatomid1 c_bondedatomid2 c_btype
1 19 20 1 
2 29 30 1 
3 21 29 2 
4 20 21 1 
5 28 29 1 
6 17 18 1 
7 23 24 1 
8 7 8 1 
9 8 9 1 
10 4 5 1 
11 4 8 2 
12 6 7 2 
13 5 6 1 
14 22 23 1 
15 25 26 1 
16 26 27 1 
17 16 17 1 
18 16 29 2 
19 16 19 2 
20 18 28 2 
21 18 20 2 
22 10 11 1 
23 10 20 2 
24 11 12 1 
25 11 28 2 
26 13 14 1 
27 1 2 1 
28 1 15 2 
29 14 15 1 
30 2 3 1 
31 2 13 2 
ITEM: TIMESTEP
73200
ITEM: NUMBER OF ENTRIES
31
ITEM: BOX BOUNDS pp pp pp
-1.0000000000000000e+01 1.0000000000000000e+01
-1.0000000000000000e+01 1.0000000000000000e+01
-1.0000000000000000e+01 1.0000000000000000e+01
ITEM: ENTRIES index c_bondedatomid1 c_bondedatomid2 c_btype
1 19 20 1 
2 11 12 1 
3 11 28 2 
4 23 24 1 
5 7 8 1 
6 8 9 1 
7 6 7 2 
8 22 23 1 
9 25 26 1 
10 26 27 1 
11 4 5 1 
12 4 8 2 
13 5 6 1 
14 29 30 1 
15 21 29 2 
16 17 18 1 
17 20 21 1 
18 28 29 1 
19 16 17 1 
20 16 29 2 
21 16 19 2 
22 18 28 2 
23 18 20 2 
24 10 11 1 
25 10 20 2 
26 1 2 1 
27 1 15 2 
28 2 3 1 
29 2 13 2 
30 13 14 1 
31 14 15 1 
ITEM: TIMESTEP
73300
ITEM: NUMBER OF ENTRIES
31
ITEM: BOX BOUNDS pp pp pp
-1.0000000000000000e+01 1.0000000000000000e+01
-1.0000000000000000e+01 1.0000000000000000e+01
-1.0000000000000000e+01 1.0000000000000000e+01
ITEM: ENTRIES index c_bondedatomid1 c_bondedatomid2 c_btype
1 19 20 1 
2 11 12 1 
3 11 28 2 
4 23 24 1 
5 7 8 1 
6 8 9 1 
7 6 7 2 
8 22 23 1 
9 25 26 1 
10 26 27 1 
11 4 5 1 
12 4 8 2 
13 5 6 1 
14 29 30 1 
15 21 29 2 
16 17 18 1 
17 20 21 1 
18 28 29 1 
19 16 17 1 
20 16 29 2 
21 16 19 2 
22 18 28 2 
23 18 20 2 
24 10 11 1 
25 10 20 2 
26 1 2 1 
27 1 15 2 
28 2 3 1 
29 2 13 2 
30 13 14 1 
31 14 15 1 
ITEM: TIMESTEP
73400
ITEM: NUMBER OF ENTRIES
31
ITEM: BOX BOUNDS pp pp pp
-1.0000000000000000e+01 1.0000000000000000e+01
-1.0000000000000000e+01 1.0000000000000000e+01
-1.0000000000000000e+01 1.0000000000000000e+01
ITEM: ENTRIES index c_bondedatomid1 c_bondedatomid2 c_btype
1 19 20 1 
2 11 12 1 
3 11 28 2 
4 23 24 1 
5 7 8 1 
6 8 9 1 
7 6 7 2 
8 22 23 1 
9 25 26 1 
10 26 27 1 
11 4 5 1 
12 4 8 2 
13 5 6 1 
14 29 30 1 
15 21 29 2 
16 17 18 1 
17 20 21 1 
18 28 29 1 
19 16 17 1 
20 16 29 2 
21 16 19 2 
22 18 28 2 
23 18 20 2 
24 10 11 1 
25 10 20 2 
26 1 2 1 
27 1 15 2 
28 2 3 1 
29 2 13 2 
30 13 14 1 
31 14 15 1 
ITEM: TIMESTEP
73500
ITEM: NUMBER OF ENTRIES
31
ITEM: BOX BOUNDS pp pp pp
-1.0000000000000000e+01 1.0000000000000000e+01
-1.0000000000000000e+01 1.0000000000000000e+01
-1.0000000000000000e+01 1.0000000000000000e+01
ITEM: ENTRIES index c_bondedatomid1 c_bondedatomid2 c_btype
1 19 20 1 
2 11 12 1 
3 11 28 2 
4 23 24 1 
5 7 8 1 
6 8 9 1 
7 6 7 2 
8 22 23 1 
9 25 26 1 
10 26 27 1 
11 4 5 1 
12 4 8 2 
13 5 6 1 
14 29 30 1 
15 21 29 2 
16 17 18 1 
17 20 21 1 
18 28 29 1 
19 16 17 1 
20 16 29 2 
21 16 19 2 
22 18 28 2 
23 18 20 2 
24 10 11 1 
25 10 20 2 
26 1 2 1 
27 1 15 2 
28 2 3 1 
29 2 13 2 
30 13 14 1 
31 14 15 1 
ITEM: TIMESTEP
73600
ITEM: NUMBER OF ENTRIES
31
ITEM: BOX BOUNDS pp pp pp
-1.0000000000000000e+01 1.0000000000000000e+01
-1.0000000000000000e+01 1.0000000000000000e+01
-1.0000000000000000e+01 1.0000000000000000e+01
ITEM: ENTRIES index c_bondedatomid1 c_bondedatomid2 c_btype
1 19 20 1 
2 11 12 1 
3 11 28 2 
4 23 24 1 
5 7 8 1 
6 8 9 1 
7 6 7 2 
8 22 23 1 
9 25 26 1 
10 26 27 1 
11 4 5 1 
12 4 8 2 
13 5 6 1 
14 29 30 1 
15 21 29 2 
16 17 18 1 
17 20 21 1 
18 28 29 1 
19 16 17 1 
20 16 29 2 
21 16 19 2 
22 18 28 2 
23 18 20 2 
24 10 11 1 
25 10 20 2 
26 1 2 1 
27 1 15 2 
28 2 3 1 
29 2 13 2 
30 13 14 1 
31 14 15 1 
ITEM: TIMESTEP
73700
ITEM: NUMBER OF ENTRIES
31
ITEM: BOX BOUNDS pp pp pp
-1.0000000000000000e+01 1.0000000000000000e+01
-1.0000000000000000e+01 1.0000000000000000e+01
-1.0000000000000000e+01 1.0000000000000000e+01
ITEM: ENTRIES index c_bondedatomid1 c_bondedatomid2 c_btype
1 19 20 1 
2 11 12 1 
3 11 28 2 
4 23 24 1 
5 7 8 1 
6 8 9 1 
7 6 7 2 
8 22 23 1 
9 25 26 1 
10 26 27 1 
11 4 5 1 
12 4 8 2 
13 5 6 1 
14 29 30 1 
15 21 29 2 
16 17 18 1 
17 20 21 1 
18 28 29 1 
19 16 17 1 
20 16 29 2 
21 16 19 2 
22 18 28 2 
23 18 20 2 
24 10 11 1 
25 10 20 2 
26 1 2 1 
27 1 15 2 
28 2 3 1 
29 2 13 2 
30 13 14 1 
31 14 15 1 
ITEM: TIMESTEP
73800
ITEM: NUMBER OF ENTRIES
31
ITEM: BOX BOUNDS pp pp pp
-1.0000000000000000e+01 1.0000000000000000e+01
-1.0000000000000000e+01 1.0000000000000000e+01
-1.0000000000000000e+01 1.0000000000000000e+01
ITEM: ENTRIES index c_bondedatomid1 c_bondedatomid2 c_btype
1 19 20 1 
2 11 12 1 
3 11 28 2 
4 23 24 1 
5 7 8 1 
6 8 9 1 
7 6 7 2 
8 22 23 1 
9 25 26 1 
10 26 27 1 
11 4 5 1 
12 4 8 2 
13 5 6 1 
14 29 30 1 
15 21 29 2 
16 17 18 1 
17 20 21 1 
18 28 29 1 
19 16 17 1 
20 16 29 2 
21 16 19 2 
22 18 28 2 
23 18 20 2 
24 10 11 1 
25 10 20 2 
26 1 2 1 
27 1 15 2 
28 2 3 1 
29 2 13 2 
30 13 14 1 
31 14 15 1 
ITEM: TIMESTEP
73900
ITEM: NUMBER OF ENTRIES
31
ITEM: BOX BOUNDS pp pp pp
-1.0000000000000000e+01 1.0000000000000000e+01
-1.0000000000000000e+01 1.0000000000000000e+01
-1.0000000000000000e+01 1.0000000000000000e+01
ITEM: ENTRIES index c_bondedatomid1 c_bondedatomid2 c_btype
1 19 20 1 
2 11 12 1 
3 11 28 2 
4 23 24 1 
5 7 8 1 
6 8 9 1 
7 6 7 2 
8 22 23 1 
9 25 26 1 
10 26 27 1 
11 4 5 1 
12 4 8 2 
13 5 6 1 
14 29 30 1 
15 21 29 2 
16 17 18 1 
17 20 21 1 
18 28 29 1 
19 16 17 1 
20 16 29 2 
21 16 19 2 
22 18 28 2 
23 18 20 2 
24 10 11 1 
25 10 20 2 
26 1 2 1 
27 1 15 2 
28 2 3 1 
29 2 13 2 
30 13 14 1 
31 14 15 1 
ITEM: TIMESTEP
74000
ITEM: NUMBER OF ENTRIES
31
ITEM: BOX BOUNDS pp pp pp
-1.0000000000000000e+01 1.0000000000000000e+01
-1.0000000000000000e+01 1.0000000000000000e+01
-1.0000000000000000e+01 1.0000000000000000e+01
ITEM: ENTRIES index c_bondedatomid1 c_bondedatomid2 c_btype
1 19 20 1 
2 11 12 1 
3 11 28 2 
4 23 24 1 
5 7 8 1 
6 8 9 1 
7 6 7 2 
8 22 23 1 
9 25 26 1 
10 26 27 1 
11 4 5 1 
12 4 8 2 
13 5 6 1 
14 29 30 1 
15 21 29 2 
16 17 18 1 
17 20 21 1 
18 28 29 1 
19 16 17 1 
20 16 29 2 
21 16 19 2 
22 18 28 2 
23 18 20 2 
24 10 11 1 
25 10 20 2 
26 1 2 1 
27 1 15 2 
28 2 3 1 
29 2 13 2 
30 13 14 1 
31 14 15 1 
ITEM: TIMESTEP
74100
ITEM: NUMBER OF ENTRIES
32
ITEM: BOX BOUNDS pp pp pp
-1.0000000000000000e+01 1.0000000000000000e+01
-1.0000000000000000e+01 1.0000000000000000e+01
-1.0000000000000000e+01 1.0000000000000000e+01
ITEM: ENTRIES index c_bondedatomid1 c_bondedatomid2 c_btype
1 11 12 1 
2 11 28 2 
3 28 29 1 
4 16 17 1 
5 16 29 2 
6 16 19 2 
7 10 11 1 
8 10 20 2 
9 22 23 1 
10 22 27 2 
11 7 8 1 
12 6 7 2 
13 25 26 1 
14 26 27 1 
15 23 24 1 
16 8 9 1 
17 4 5 1 
18 4 8 2 
19 5 6 1 
20 29 30 1 
21 19 20 1 
22 21 29 2 
23 17 18 1 
24 20 21 1 
25 18 28 2 
26 18 20 2 
27 1 2 1 
28 1 15 2 
29 2 3 1 
30 2 13 2 
31 13 14 1 
32 14 15 1 
ITEM: TIMESTEP
74200
ITEM: NUMBER OF ENTRIES
33
ITEM: BOX BOUNDS pp pp pp
-1.0000000000000000e+01 1.0000000000000000e+01
-1.0000000000000000e+01 1.0000000000000000e+01
-1.0000000000000000e+01 1.0000000000000000e+01
ITEM: ENTRIES index c_bondedatomid1 c_bondedatomid2 c_btype
1 12 17 2 
2 11 12 1 
3 11 28 2 
4 28 29 1 
5 16 17 1 
6 16 29 2 
7 16 19 2 
8 10 11 1 
9 10 20 2 
10 22 23 1 
11 22 27 2 
12 7 8 1 
13 6 7 2 
14 25 26 1 
15 26 27 1 
16 23 24 1 
17 8 9 1 
18 4 5 1 
19 4 8 2 
20 5 6 1 
21 29 30 1 
22 19 20 1 
23 21 29 2 
24 17 18 1 
25 20 21 1 
26 18 28 2 
27 18 20 2 
28 1 2 1 
29 1 15 2 
30 2 3 1 
31 2 13 2 
32 13 14 1 
33 14 15 1 
ITEM: TIMESTEP
74300
ITEM: NUMBER OF ENTRIES
33
ITEM: BOX BOUNDS pp pp pp
-1.0000000000000000e+01 1.0000000000000000e+01
-1.0000000000000000e+01 1.0000000000000000e+01
-1.0000000000000000e+01 1.0000000000000000e+01
ITEM: ENTRIES index c_bondedatomid1 c_bondedatomid2 c_btype
1 12 17 2 
2 11 12 1 
3 11 28 2 
4 28 29 1 
5 16 17 1 
6 16 29 2 
7 16 19 2 
8 10 11 1 
9 10 20 2 
10 22 23 1 
11 22 27 2 
12 7 8 1 
13 6 7 2 
14 25 26 1 
15 26 27 1 
16 23 24 1 
17 8 9 1 
18 4 5 1 
19 4 8 2 
20 5 6 1 
21 29 30 1 
22 19 20 1 
23 21 29 2 
24 17 18 1 
25 20 21 1 
26 18 28 2 
27 18 20 2 
28 1 2 1 
29 1 15 2 
30 2 3 1 
31 2 13 2 
32 13 14 1 
33 14 15 1 
ITEM: TIMESTEP
74400
ITEM: NUMBER OF ENTRIES
33
ITEM: BOX BOUNDS pp pp pp
-1.0000000000000000e+01 1.0000000000000000e+01
-1.0000000000000000e+01 1.0000000000000000e+01
-1.0000000000000000e+01 1.0000000000000000e+01
ITEM: ENTRIES index c_bondedatomid1 c_bondedatomid2 c_btype
1 12 17 2 
2 11 12 1 
3 11 28 2 
4 28 29 1 
5 16 17 1 
6 16 29 2 
7 16 19 2 
8 10 11 1 
9 10 20 2 
10 22 23 1 
11 22 27 2 
12 7 8 1 
13 6 7 2 
14 25 26 1 
15 26 27 1 
16 23 24 1 
17 8 9 1 
18 4 5 1 
19 4 8 2 
20 5 6 1 
21 29 30 1 
22 19 20 1 
23 21 29 2 
24 17 18 1 
25 20 21 1 
26 18 28 2 
27 18 20 2 
28 1 2 1 
29 1 15 2 
30 2 3 1 
31 2 13 2 
32 13 14 1 
33 14 15 1 
ITEM: TIMESTEP
74500
ITEM: NUMBER OF ENTRIES
33
ITEM: BOX BOUNDS pp pp pp
-1.0000000000000000e+01 1.0000000000000000e+01
-1.0000000000000000e+01 1.0000000000000000e+01
-1.0000000000000000e+01 1.0000000000000000e+01
ITEM: ENTRIES index c_bondedatomid1 c_bondedatomid2 c_btype
1 12 17 2 
2 11 12 1 
3 11 28 2 
4 28 29 1 
5 16 17 1 
6 16 29 2 
7 16 19 2 
8 10 11 1 
9 10 20 2 
10 22 23 1 
11 22 27 2 
12 7 8 1 
13 6 7 2 
14 25 26 1 
15 26 27 1 
16 23 24 1 
17 8 9 1 
18 4 5 1 
19 4 8 2 
20 5 6 1 
21 29 30 1 
22 19 20 1 
23 21 29 2 
24 17 18 1 
25 20 21 1 
26 18 28 2 
27 18 20 2 
28 1 2 1 
29 1 15 2 
30 2 3 1 
31 2 13 2 
32 13 14 1 
33 14 15 1 
ITEM: TIMESTEP
74600
ITEM: NUMBER OF ENTRIES
33
ITEM: BOX BOUNDS pp pp pp
-1.0000000000000000e+01 1.0000000000000000e+01
-1.0000000000000000e+01 1.0000000000000000e+01
-1.0000000000000000e+01 1.0000000000000000e+01
ITEM: ENTRIES index c_bondedatomid1 c_bondedatomid2 c_btype
1 12 17 2 
2 11 12 1 
3 11 28 2 
4 28 29 1 
5 16 17 1 
6 16 29 2 
7 16 19 2 
8 10 11 1 
9 10 20 2 
10 22 23 1 
11 22 27 2 
12 7 8 1 
13 6 7 2 
14 25 26 1 
15 26 27 1 
16 23 24 1 
17 8 9 1 
18 4 5 1 
19 4 8 2 
20 5 6 1 
21 29 30 1 
22 19 20 1 
23 21 29 2 
24 17 18 1 
25 20 21 1 
26 18 28 2 
27 18 20 2 
28 1 2 1 
29 1 15 2 
30 2 3 1 
31 2 13 2 
32 13 14 1 
33 14 15 1 
ITEM: TIMESTEP
74700
ITEM: NUMBER OF ENTRIES
33
ITEM: BOX BOUNDS pp pp pp
-1.0000000000000000e+01 1.0000000000000000e+01
-1.0000000000000000e+01 1.0000000000000000e+01
-1.0000000000000000e+01 1.0000000000000000e+01
ITEM: ENTRIES index c_bondedatomid1 c_bondedatomid2 c_btype
1 12 17 2 
2 11 12 1 
3 11 28 2 
4 28 29 1 
5 16 17 1 
6 16 29 2 
7 16 19 2 
8 10 11 1 
9 10 20 2 
10 22 23 1 
11 22 27 2 
12 7 8 1 
13 6 7 2 
14 25 26 1 
15 26 27 1 
16 23 24 1 
17 8 9 1 
18 4 5 1 
19 4 8 2 
20 5 6 1 
21 29 30 1 
22 19 20 1 
23 21 29 2 
24 17 18 1 
25 20 21 1 
26 18 28 2 
27 18 20 2 
28 1 2 1 
29 1 15 2 
30 2 3 1 
31 2 13 2 
32 13 14 1 
33 14 15 1 
ITEM: TIMESTEP
74800
ITEM: NUMBER OF ENTRIES
34
ITEM: BOX BOUNDS pp pp pp
-1.0000000000000000e+01 1.0000000000000000e+01
-1.0000000000000000e+01 1.0000000000000000e+01
-1.0000000000000000e+01 1.0000000000000000e+01
ITEM: ENTRIES index c_bondedatomid1 c_bondedatomid2 c_btype
1 12 17 2 
2 12 21 2 
3 11 12 1 
4 11 28 2 
5 28 29 1 
6 16 17 1 
7 16 29 2 
8 16 19 2 
9 10 11 1 
10 10 20 2 
11 22 23 1 
12 22 27 2 
13 7 8 1 
14 6 7 2 
15 25 26 1 
16 26 27 1 
17 23 24 1 
18 8 9 1 
19 4 5 1 
20 4 8 2 
21 5 6 1 
22 29 30 1 
23 19 20 1 
24 21 29 2 
25 17 18 1 
26 20 21 1 
27 18 28 2 
28 18 20 2 
29 1 2 1 
30 1 15 2 
31 2 3 1 
32 2 13 2 
33 13 14 1 
34 14 15 1 
ITEM: TIMESTEP
74900
ITEM: NUMBER OF ENTRIES
34
ITEM: BOX BOUNDS pp pp pp
-1.0000000000000000e+01 1.0000000000000000e+01
-1.0000000000000000e+01 1.0000000000000000e+01
-1.0000000000000000e+01 1.0000000000000000e+01
ITEM: ENTRIES index c_bondedatomid1 c_bondedatomid2 c_btype
1 12 17 2 
2 12 21 2 
3 11 12 1 
4 11 28 2 
5 28 29 1 
6 16 17 1 
7 16 29 2 
8 16 19 2 
9 10 11 1 
10 10 20 2 
11 22 23 1 
12 22 27 2 
13 7 8 1 
14 6 7 2 
15 25 26 1 
16 26 27 1 
17 23 24 1 
18 8 9 1 
19 4 5 1 
20 4 8 2 
21 5 6 1 
22 29 30 1 
23 19 20 1 
24 21 29 2 
25 17 18 1 
26 20 21 1 
27 18 28 2 
28 18 20 2 
29 1 2 1 
30 1 15 2 
31 2 3 1 
32 2 13 2 
33 13 14 1 
34 14 15 1 
ITEM: TIMESTEP
75000
ITEM: NUMBER OF ENTRIES
34
ITEM: BOX BOUNDS pp pp pp
-1.0000000000000000e+01 1.0000000000000000e+01
-1.0000000000000000e+01 1.0000000000000000e+01
-1.0000000000000000e+01 1.0000000000000000e+01
ITEM: ENTRIES index c_bondedatomid1 c_bondedatomid2 c_btype
1 12 17 2 
2 12 21 2 
3 11 12 1 
4 11 28 2 
5 28 29 1 
6 16 17 1 
7 16 29 2 
8 16 19 2 
9 10 11 1 
10 10 20 2 
11 22 23 1 
12 22 27 2 
13 7 8 1 
14 6 7 2 
15 25 26 1 
16 26 27 1 
17 23 24 1 
18 8 9 1 
19 4 5 1 
20 4 8 2 
21 5 6 1 
22 29 30 1 
23 19 20 1 
24 21 29 2 
25 17 18 1 
26 20 21 1 
27 18 28 2 
28 18 20 2 
29 1 2 1 
30 1 15 2 
31 2 3 1 
32 2 13 2 
33 13 14 1 
34 14 15 1 
ITEM: TIMESTEP
75100
ITEM: NUMBER OF ENTRIES
34
ITEM: BOX BOUNDS pp pp pp
-1.0000000000000000e+01 1.0000000000000000e+01
-1.0000000000000000e+01 1.0000000000000000e+01
-1.0000000000000000e+01 1.0000000000000000e+01
ITEM: ENTRIES index c_bondedatomid1 c_bondedatomid2 c_btype
1 12 17 2 
2 12 21 2 
3 11 12 1 
4 11 28 2 
5 28 29 1 
6 18 28 2 
7 18 20 2 
8 22 23 1 
9 22 27 2 
10 25 26 1 
11 26 27 1 
12 23 24 1 
13 7 8 1 
14 6 7 2 
15 8 9 1 
16 4 5 1 
17 4 8 2 
18 5 6 1 
19 29 30 1 
20 1 2 1 
21 1 15 2 
22 10 11 1 
23 10 20 2 
24 16 17 1 
25 16 29 2 
26 16 19 2 
27 19 20 1 
28 21 29 2 
29 17 18 1 
30 20 21 1 
31 2 3 1 
32 2 13 2 
33 13 14 1 
34 14 15 1 
ITEM: TIMESTEP
75200
ITEM: NUMBER OF ENTRIES
34
ITEM: BOX BOUNDS pp pp pp
-1.0000000000000000e+01 1.0000000000000000e+01
-1.0000000000000000e+01 1.0000000000000000e+01
-1.0000000000000000e+01 1.0000000000000000e+01
ITEM: ENTRIES index c_bondedatomid1 c_bondedatomid2 c_btype
1 12 17 2 
2 12 21 2 
3 11 12 1 
4 11 28 2 
5 28 29 1 
6 18 28 2 
7 18 20 2 
8 22 23 1 
9 22 27 2 
10 25 26 1 
11 26 27 1 
12 23 24 1 
13 7 8 1 
14 6 7 2 
15 8 9 1 
16 4 5 1 
17 4 8 2 
18 5 6 1 
19 29 30 1 
20 1 2 1 
21 1 15 2 
22 10 11 1 
23 10 20 2 
24 16 17 1 
25 16 29 2 
26 16 19 2 
27 19 20 1 
28 21 29 2 
29 17 18 1 
30 20 21 1 
31 2 3 1 
32 2 13 2 
33 13 14 1 
34 14 15 1 
ITEM: TIMESTEP
75300
ITEM: NUMBER OF ENTRIES
34
ITEM: BOX BOUNDS pp pp pp
-1.0000000000000000e+01 1.0000000000000000e+01
-1.0000000000000000e+01 1.0000000000000000e+01
-1.0000000000000000e+01 1.0000000000000000e+01
ITEM: ENTRIES index c_bondedatomid1 c_bondedatomid2 c_btype
1 12 17 2 
2 12 21 2 
3 11 12 1 
4 11 28 2 
5 28 29 1 
6 18 28 2 
7 18 20 2 
8 22 23 1 
9 22 27 2 
10 25 26 1 
11 26 27 1 
12 23 24 1 
13 7 8 1 
14 6 7 2 
15 8 9 1 
16 4 5 1 
17 4 8 2 
18 5 6 1 
19 29 30 1 
20 1 2 1 
21 1 15 2 
22 10 11 1 
23 10 20 2 
24 16 17 1 
25 16 29 2 
26 16 19 2 
27 19 20 1 
28 21 29 2 
29 17 18 1 
30 20 21 1 
31 2 3 1 
32 2 13 2 
33 13 14 1 
34 14 15 1 
ITEM: TIMESTEP
75400
ITEM: NUMBER OF ENTRIES
34
ITEM: BOX BOUNDS pp pp pp
-1.0000000000000000e+01 1.0000000000000000e+01
-1.0000000000000000e+01 1.0000000000000000e+01
-1.0000000000000000e+01 1.0000000000000000e+01
ITEM: ENTRIES index c_bondedatomid1 c_bondedatomid2 c_btype
1 12 17 2 
2 12 21 2 
3 11 12 1 
4 11 28 2 
5 28 29 1 
6 18 28 2 
7 18 20 2 
8 22 23 1 
9 22 27 2 
10 25 26 1 
11 26 27 1 
12 23 24 1 
13 7 8 1 
14 6 7 2 
15 8 9 1 
16 4 5 1 
17 4 8 2 
18 5 6 1 
19 29 30 1 
20 1 2 1 
21 1 15 2 
22 10 11 1 
23 10 20 2 
24 16 17 1 
25 16 29 2 
26 16 19 2 
27 19 20 1 
28 21 29 2 
29 17 18 1 
30 20 21 1 
31 2 3 1 
32 2 13 2 
33 13 14 1 
34 14 15 1 
ITEM: TIMESTEP
75500
ITEM: NUMBER OF ENTRIES
34
ITEM: BOX BOUNDS pp pp pp
-1.0000000000000000e+01 1.0000000000000000e+01
-1.0000000000000000e+01 1.0000000000000000e+01
-1.0000000000000000e+01 1.0000000000000000e+01
ITEM: ENTRIES index c_bondedatomid1 c_bondedatomid2 c_btype
1 12 17 2 
2 12 21 2 
3 11 12 1 
4 11 28 2 
5 28 29 1 
6 18 28 2 
7 18 20 2 
8 22 23 1 
9 22 27 2 
10 25 26 1 
11 26 27 1 
12 23 24 1 
13 7 8 1 
14 6 7 2 
15 8 9 1 
16 4 5 1 
17 4 8 2 
18 5 6 1 
19 29 30 1 
20 1 2 1 
21 1 15 2 
22 10 11 1 
23 10 20 2 
24 16 17 1 
25 16 29 2 
26 16 19 2 
27 19 20 1 
28 21 29 2 
29 17 18 1 
30 20 21 1 
31 2 3 1 
32 2 13 2 
33 13 14 1 
34 14 15 1 
ITEM: TIMESTEP
75600
ITEM: NUMBER OF ENTRIES
34
ITEM: BOX BOUNDS pp pp pp
-1.0000000000000000e+01 1.0000000000000000e+01
-1.0000000000000000e+01 1.0000000000000000e+01
-1.0000000000000000e+01 1.0000000000000000e+01
ITEM: ENTRIES index c_bondedatomid1 c_bondedatomid2 c_btype
1 12 17 2 
2 12 21 2 
3 11 12 1 
4 11 28 2 
5 28 29 1 
6 18 28 2 
7 18 20 2 
8 22 23 1 
9 22 27 2 
10 25 26 1 
11 26 27 1 
12 23 24 1 
13 7 8 1 
14 6 7 2 
15 8 9 1 
16 4 5 1 
17 4 8 2 
18 5 6 1 
19 29 30 1 
20 1 2 1 
21 1 15 2 
22 10 11 1 
23 10 20 2 
24 16 17 1 
25 16 29 2 
26 16 19 2 
27 19 20 1 
28 21 29 2 
29 17 18 1 
30 20 21 1 
31 2 3 1 
32 2 13 2 
33 13 14 1 
34 14 15 1 
ITEM: TIMESTEP
75700
ITEM: NUMBER OF ENTRIES
34
ITEM: BOX BOUNDS pp pp pp
-1.0000000000000000e+01 1.0000000000000000e+01
-1.0000000000000000e+01 1.0000000000000000e+01
-1.0000000000000000e+01 1.0000000000000000e+01
ITEM: ENTRIES index c_bondedatomid1 c_bondedatomid2 c_btype
1 12 17 2 
2 12 21 2 
3 11 12 1 
4 11 28 2 
5 28 29 1 
6 18 28 2 
7 18 20 2 
8 22 23 1 
9 22 27 2 
10 25 26 1 
11 26 27 1 
12 23 24 1 
13 7 8 1 
14 6 7 2 
15 8 9 1 
16 4 5 1 
17 4 8 2 
18 5 6 1 
19 29 30 1 
20 1 2 1 
21 1 15 2 
22 10 11 1 
23 10 20 2 
24 16 17 1 
25 16 29 2 
26 16 19 2 
27 19 20 1 
28 21 29 2 
29 17 18 1 
30 20 21 1 
31 2 3 1 
32 2 13 2 
33 13 14 1 
34 14 15 1 
ITEM: TIMESTEP
75800
ITEM: NUMBER OF ENTRIES
34
ITEM: BOX BOUNDS pp pp pp
-1.0000000000000000e+01 1.0000000000000000e+01
-1.0000000000000000e+01 1.0000000000000000e+01
-1.0000000000000000e+01 1.0000000000000000e+01
ITEM: ENTRIES index c_bondedatomid1 c_bondedatomid2 c_btype
1 12 17 2 
2 12 21 2 
3 11 12 1 
4 11 28 2 
5 28 29 1 
6 18 28 2 
7 18 20 2 
8 22 23 1 
9 22 27 2 
10 25 26 1 
11 26 27 1 
12 23 24 1 
13 7 8 1 
14 6 7 2 
15 8 9 1 
16 4 5 1 
17 4 8 2 
18 5 6 1 
19 29 30 1 
20 1 2 1 
21 1 15 2 
22 10 11 1 
23 10 20 2 
24 16 17 1 
25 16 29 2 
26 16 19 2 
27 19 20 1 
28 21 29 2 
29 17 18 1 
30 20 21 1 
31 2 3 1 
32 2 13 2 
33 13 14 1 
34 14 15 1 
ITEM: TIMESTEP
75900
ITEM: NUMBER OF ENTRIES
34
ITEM: BOX BOUNDS pp pp pp
-1.0000000000000000e+01 1.0000000000000000e+01
-1.0000000000000000e+01 1.0000000000000000e+01
-1.0000000000000000e+01 1.0000000000000000e+01
ITEM: ENTRIES index c_bondedatomid1 c_bondedatomid2 c_btype
1 12 17 2 
2 12 21 2 
3 11 12 1 
4 11 28 2 
5 28 29 1 
6 18 28 2 
7 18 20 2 
8 22 23 1 
9 22 27 2 
10 25 26 1 
11 26 27 1 
12 23 24 1 
13 7 8 1 
14 6 7 2 
15 8 9 1 
16 4 5 1 
17 4 8 2 
18 5 6 1 
19 29 30 1 
20 1 2 1 
21 1 15 2 
22 10 11 1 
23 10 20 2 
24 16 17 1 
25 16 29 2 
26 16 19 2 
27 19 20 1 
28 21 29 2 
29 17 18 1 
30 20 21 1 
31 2 3 1 
32 2 13 2 
33 13 14 1 
34 14 15 1 
ITEM: TIMESTEP
76000
ITEM: NUMBER OF ENTRIES
34
ITEM: BOX BOUNDS pp pp pp
-1.0000000000000000e+01 1.0000000000000000e+01
-1.0000000000000000e+01 1.0000000000000000e+01
-1.0000000000000000e+01 1.0000000000000000e+01
ITEM: ENTRIES index c_bondedatomid1 c_bondedatomid2 c_btype
1 12 17 2 
2 12 21 2 
3 11 12 1 
4 11 28 2 
5 28 29 1 
6 18 28 2 
7 18 20 2 
8 22 23 1 
9 22 27 2 
10 25 26 1 
11 26 27 1 
12 23 24 1 
13 7 8 1 
14 6 7 2 
15 8 9 1 
16 4 5 1 
17 4 8 2 
18 5 6 1 
19 29 30 1 
20 1 2 1 
21 1 15 2 
22 10 11 1 
23 10 20 2 
24 16 17 1 
25 16 29 2 
26 16 19 2 
27 19 20 1 
28 21 29 2 
29 17 18 1 
30 20 21 1 
31 2 3 1 
32 2 13 2 
33 13 14 1 
34 14 15 1 
ITEM: TIMESTEP
76100
ITEM: NUMBER OF ENTRIES
34
ITEM: BOX BOUNDS pp pp pp
-1.0000000000000000e+01 1.0000000000000000e+01
-1.0000000000000000e+01 1.0000000000000000e+01
-1.0000000000000000e+01 1.0000000000000000e+01
ITEM: ENTRIES index c_bondedatomid1 c_bondedatomid2 c_btype
1 12 17 2 
2 12 21 2 
3 11 12 1 
4 11 28 2 
5 28 29 1 
6 18 28 2 
7 18 20 2 
8 22 23 1 
9 22 27 2 
10 25 26 1 
11 26 27 1 
12 23 24 1 
13 7 8 1 
14 6 7 2 
15 8 9 1 
16 4 5 1 
17 4 8 2 
18 5 6 1 
19 29 30 1 
20 1 2 1 
21 1 15 2 
22 10 11 1 
23 10 20 2 
24 16 17 1 
25 16 29 2 
26 16 19 2 
27 19 20 1 
28 21 29 2 
29 17 18 1 
30 20 21 1 
31 2 3 1 
32 2 13 2 
33 13 14 1 
34 14 15 1 
ITEM: TIMESTEP
76200
ITEM: NUMBER OF ENTRIES
34
ITEM: BOX BOUNDS pp pp pp
-1.0000000000000000e+01 1.0000000000000000e+01
-1.0000000000000000e+01 1.0000000000000000e+01
-1.0000000000000000e+01 1.0000000000000000e+01
ITEM: ENTRIES index c_bondedatomid1 c_bondedatomid2 c_btype
1 12 17 2 
2 12 21 2 
3 10 11 1 
4 10 20 2 
5 18 28 2 
6 18 20 2 
7 17 18 1 
8 20 21 1 
9 4 5 1 
10 4 8 2 
11 5 6 1 
12 25 26 1 
13 26 27 1 
14 22 23 1 
15 22 27 2 
16 23 24 1 
17 7 8 1 
18 6 7 2 
19 8 9 1 
20 11 12 1 
21 11 28 2 
22 29 30 1 
23 21 29 2 
24 28 29 1 
25 16 17 1 
26 16 29 2 
27 16 19 2 
28 19 20 1 
29 2 3 1 
30 2 13 2 
31 13 14 1 
32 14 15 1 
33 1 2 1 
34 1 15 2 
ITEM: TIMESTEP
76300
ITEM: NUMBER OF ENTRIES
34
ITEM: BOX BOUNDS pp pp pp
-1.0000000000000000e+01 1.0000000000000000e+01
-1.0000000000000000e+01 1.0000000000000000e+01
-1.0000000000000000e+01 1.0000000000000000e+01
ITEM: ENTRIES index c_bondedatomid1 c_bondedatomid2 c_btype
1 12 17 2 
2 12 21 2 
3 10 11 1 
4 10 20 2 
5 18 28 2 
6 18 20 2 
7 17 18 1 
8 20 21 1 
9 4 5 1 
10 4 8 2 
11 5 6 1 
12 25 26 1 
13 26 27 1 
14 22 23 1 
15 22 27 2 
16 23 24 1 
17 7 8 1 
18 6 7 2 
19 8 9 1 
20 11 12 1 
21 11 28 2 
22 29 30 1 
23 21 29 2 
24 28 29 1 
25 16 17 1 
26 16 29 2 
27 16 19 2 
28 19 20 1 
29 2 3 1 
30 2 13 2 
31 13 14 1 
32 14 15 1 
33 1 2 1 
34 1 15 2 
ITEM: TIMESTEP
76400
ITEM: NUMBER OF ENTRIES
34
ITEM: BOX BOUNDS pp pp pp
-1.0000000000000000e+01 1.0000000000000000e+01
-1.0000000000000000e+01 1.0000000000000000e+01
-1.0000000000000000e+01 1.0000000000000000e+01
ITEM: ENTRIES index c_bondedatomid1 c_bondedatomid2 c_btype
1 12 17 2 
2 12 21 2 
3 10 11 1 
4 10 20 2 
5 18 28 2 
6 18 20 2 
7 17 18 1 
8 20 21 1 
9 4 5 1 
10 4 8 2 
11 5 6 1 
12 25 26 1 
13 26 27 1 
14 22 23 1 
15 22 27 2 
16 23 24 1 
17 7 8 1 
18 6 7 2 
19 8 9 1 
20 11 12 1 
21 11 28 2 
22 29 30 1 
23 21 29 2 
24 28 29 1 
25 16 17 1 
26 16 29 2 
27 16 19 2 
28 19 20 1 
29 2 3 1 
30 2 13 2 
31 13 14 1 
32 14 15 1 
33 1 2 1 
34 1 15 2 
ITEM: TIMESTEP
76500
ITEM: NUMBER OF ENTRIES
34
ITEM: BOX BOUNDS pp pp pp
-1.0000000000000000e+01 1.0000000000000000e+01
-1.0000000000000000e+01 1.0000000000000000e+01
-1.0000000000000000e+01 1.0000000000000000e+01
ITEM: ENTRIES index c_bondedatomid1 c_bondedatomid2 c_btype
1 12 17 2 
2 12 21 2 
3 10 11 1 
4 10 20 2 
5 18 28 2 
6 18 20 2 
7 17 18 1 
8 20 21 1 
9 4 5 1 
10 4 8 2 
11 5 6 1 
12 25 26 1 
13 26 27 1 
14 22 23 1 
15 22 27 2 
16 23 24 1 
17 7 8 1 
18 6 7 2 
19 8 9 1 
20 11 12 1 
21 11 28 2 
22 29 30 1 
23 21 29 2 
24 28 29 1 
25 16 17 1 
26 16 29 2 
27 16 19 2 
28 19 20 1 
29 2 3 1 
30 2 13 2 
31 13 14 1 
32 14 15 1 
33 1 2 1 
34 1 15 2 
ITEM: TIMESTEP
76600
ITEM: NUMBER OF ENTRIES
34
ITEM: BOX BOUNDS pp pp pp
-1.0000000000000000e+01 1.0000000000000000e+01
-1.0000000000000000e+01 1.0000000000000000e+01
-1.0000000000000000e+01 1.0000000000000000e+01
ITEM: ENTRIES index c_bondedatomid1 c_bondedatomid2 c_btype
1 12 17 2 
2 12 21 2 
3 10 11 1 
4 10 20 2 
5 18 28 2 
6 18 20 2 
7 17 18 1 
8 20 21 1 
9 4 5 1 
10 4 8 2 
11 5 6 1 
12 25 26 1 
13 26 27 1 
14 22 23 1 
15 22 27 2 
16 23 24 1 
17 7 8 1 
18 6 7 2 
19 8 9 1 
20 11 12 1 
21 11 28 2 
22 29 30 1 
23 21 29 2 
24 28 29 1 
25 16 17 1 
26 16 29 2 
27 16 19 2 
28 19 20 1 
29 2 3 1 
30 2 13 2 
31 13 14 1 
32 14 15 1 
33 1 2 1 
34 1 15 2 
ITEM: TIMESTEP
76700
ITEM: NUMBER OF ENTRIES
34
ITEM: BOX BOUNDS pp pp pp
-1.0000000000000000e+01 1.0000000000000000e+01
-1.0000000000000000e+01 1.0000000000000000e+01
-1.0000000000000000e+01 1.0000000000000000e+01
ITEM: ENTRIES index c_bondedatomid1 c_bondedatomid2 c_btype
1 12 17 2 
2 12 21 2 
3 10 11 1 
4 10 20 2 
5 18 28 2 
6 18 20 2 
7 17 18 1 
8 20 21 1 
9 4 5 1 
10 4 8 2 
11 5 6 1 
12 25 26 1 
13 26 27 1 
14 22 23 1 
15 22 27 2 
16 23 24 1 
17 7 8 1 
18 6 7 2 
19 8 9 1 
20 11 12 1 
21 11 28 2 
22 29 30 1 
23 21 29 2 
24 28 29 1 
25 16 17 1 
26 16 29 2 
27 16 19 2 
28 19 20 1 
29 2 3 1 
30 2 13 2 
31 13 14 1 
32 14 15 1 
33 1 2 1 
34 1 15 2 
ITEM: TIMESTEP
76800
ITEM: NUMBER OF ENTRIES
34
ITEM: BOX BOUNDS pp pp pp
-1.0000000000000000e+01 1.0000000000000000e+01
-1.0000000000000000e+01 1.0000000000000000e+01
-1.0000000000000000e+01 1.0000000000000000e+01
ITEM: ENTRIES index c_bondedatomid1 c_bondedatomid2 c_btype
1 12 17 2 
2 12 21 2 
3 10 11 1 
4 10 20 2 
5 18 28 2 
6 18 20 2 
7 17 18 1 
8 20 21 1 
9 4 5 1 
10 4 8 2 
11 5 6 1 
12 25 26 1 
13 26 27 1 
14 22 23 1 
15 22 27 2 
16 23 24 1 
17 7 8 1 
18 6 7 2 
19 8 9 1 
20 11 12 1 
21 11 28 2 
22 29 30 1 
23 21 29 2 
24 28 29 1 
25 16 17 1 
26 16 29 2 
27 16 19 2 
28 19 20 1 
29 2 3 1 
30 2 13 2 
31 13 14 1 
32 14 15 1 
33 1 2 1 
34 1 15 2 
ITEM: TIMESTEP
76900
ITEM: NUMBER OF ENTRIES
34
ITEM: BOX BOUNDS pp pp pp
-1.0000000000000000e+01 1.0000000000000000e+01
-1.0000000000000000e+01 1.0000000000000000e+01
-1.0000000000000000e+01 1.0000000000000000e+01
ITEM: ENTRIES index c_bondedatomid1 c_bondedatomid2 c_btype
1 12 17 2 
2 12 21 2 
3 10 11 1 
4 10 20 2 
5 18 28 2 
6 18 20 2 
7 17 18 1 
8 20 21 1 
9 4 5 1 
10 4 8 2 
11 5 6 1 
12 25 26 1 
13 26 27 1 
14 22 23 1 
15 22 27 2 
16 23 24 1 
17 7 8 1 
18 6 7 2 
19 8 9 1 
20 11 12 1 
21 11 28 2 
22 29 30 1 
23 21 29 2 
24 28 29 1 
25 16 17 1 
26 16 29 2 
27 16 19 2 
28 19 20 1 
29 2 3 1 
30 2 13 2 
31 13 14 1 
32 14 15 1 
33 1 2 1 
34 1 15 2 
ITEM: TIMESTEP
77000
ITEM: NUMBER OF ENTRIES
34
ITEM: BOX BOUNDS pp pp pp
-1.0000000000000000e+01 1.0000000000000000e+01
-1.0000000000000000e+01 1.0000000000000000e+01
-1.0000000000000000e+01 1.0000000000000000e+01
ITEM: ENTRIES index c_bondedatomid1 c_bondedatomid2 c_btype
1 12 17 2 
2 12 21 2 
3 10 11 1 
4 10 20 2 
5 18 28 2 
6 18 20 2 
7 17 18 1 
8 20 21 1 
9 4 5 1 
10 4 8 2 
11 5 6 1 
12 25 26 1 
13 26 27 1 
14 22 23 1 
15 22 27 2 
16 23 24 1 
17 7 8 1 
18 6 7 2 
19 8 9 1 
20 11 12 1 
21 11 28 2 
22 29 30 1 
23 21 29 2 
24 28 29 1 
25 16 17 1 
26 16 29 2 
27 16 19 2 
28 19 20 1 
29 2 3 1 
30 2 13 2 
31 13 14 1 
32 14 15 1 
33 1 2 1 
34 1 15 2 
ITEM: TIMESTEP
77100
ITEM: NUMBER OF ENTRIES
34
ITEM: BOX BOUNDS pp pp pp
-1.0000000000000000e+01 1.0000000000000000e+01
-1.0000000000000000e+01 1.0000000000000000e+01
-1.0000000000000000e+01 1.0000000000000000e+01
ITEM: ENTRIES index c_bondedatomid1 c_bondedatomid2 c_btype
1 12 17 2 
2 12 21 2 
3 10 11 1 
4 10 20 2 
5 18 28 2 
6 18 20 2 
7 17 18 1 
8 20 21 1 
9 4 5 1 
10 4 8 2 
11 5 6 1 
12 25 26 1 
13 26 27 1 
14 22 23 1 
15 22 27 2 
16 23 24 1 
17 7 8 1 
18 6 7 2 
19 8 9 1 
20 11 12 1 
21 11 28 2 
22 29 30 1 
23 21 29 2 
24 28 29 1 
25 16 17 1 
26 16 29 2 
27 16 19 2 
28 19 20 1 
29 2 3 1 
30 2 13 2 
31 13 14 1 
32 14 15 1 
33 1 2 1 
34 1 15 2 
ITEM: TIMESTEP
77200
ITEM: NUMBER OF ENTRIES
34
ITEM: BOX BOUNDS pp pp pp
-1.0000000000000000e+01 1.0000000000000000e+01
-1.0000000000000000e+01 1.0000000000000000e+01
-1.0000000000000000e+01 1.0000000000000000e+01
ITEM: ENTRIES index c_bondedatomid1 c_bondedatomid2 c_btype
1 12 17 2 
2 12 21 2 
3 10 11 1 
4 10 20 2 
5 20 21 1 
6 11 12 1 
7 11 28 2 
8 18 28 2 
9 18 20 2 
10 17 18 1 
11 5 6 1 
12 8 9 1 
13 4 5 1 
14 4 8 2 
15 23 24 1 
16 25 26 1 
17 26 27 1 
18 22 23 1 
19 22 27 2 
20 7 8 1 
21 6 7 2 
22 21 29 2 
23 29 30 1 
24 28 29 1 
25 16 17 1 
26 16 29 2 
27 16 19 2 
28 19 20 1 
29 2 3 1 
30 2 13 2 
31 13 14 1 
32 14 15 1 
33 1 2 1 
34 1 15 2 
ITEM: TIMESTEP
77300
ITEM: NUMBER OF ENTRIES
34
ITEM: BOX BOUNDS pp pp pp
-1.0000000000000000e+01 1.0000000000000000e+01
-1.0000000000000000e+01 1.0000000000000000e+01
-1.0000000000000000e+01 1.0000000000000000e+01
ITEM: ENTRIES index c_bondedatomid1 c_bondedatomid2 c_btype
1 12 17 2 
2 12 21 2 
3 10 11 1 
4 10 20 2 
5 20 21 1 
6 11 12 1 
7 11 28 2 
8 18 28 2 
9 18 20 2 
10 17 18 1 
11 5 6 1 
12 8 9 1 
13 4 5 1 
14 4 8 2 
15 23 24 1 
16 25 26 1 
17 26 27 1 
18 22 23 1 
19 22 27 2 
20 7 8 1 
21 6 7 2 
22 21 29 2 
23 29 30 1 
24 28 29 1 
25 16 17 1 
26 16 29 2 
27 16 19 2 
28 19 20 1 
29 2 3 1 
30 2 13 2 
31 13 14 1 
32 14 15 1 
33 1 2 1 
34 1 15 2 
ITEM: TIMESTEP
77400
ITEM: NUMBER OF ENTRIES
34
ITEM: BOX BOUNDS pp pp pp
-1.0000000000000000e+01 1.0000000000000000e+01
-1.0000000000000000e+01 1.0000000000000000e+01
-1.0000000000000000e+01 1.0000000000000000e+01
ITEM: ENTRIES index c_bondedatomid1 c_bondedatomid2 c_btype
1 12 17 2 
2 12 21 2 
3 10 11 1 
4 10 20 2 
5 20 21 1 
6 11 12 1 
7 11 28 2 
8 18 28 2 
9 18 20 2 
10 17 18 1 
11 5 6 1 
12 8 9 1 
13 4 5 1 
14 4 8 2 
15 23 24 1 
16 25 26 1 
17 26 27 1 
18 22 23 1 
19 22 27 2 
20 7 8 1 
21 6 7 2 
22 21 29 2 
23 29 30 1 
24 28 29 1 
25 16 17 1 
26 16 29 2 
27 16 19 2 
28 19 20 1 
29 2 3 1 
30 2 13 2 
31 13 14 1 
32 14 15 1 
33 1 2 1 
34 1 15 2 
ITEM: TIMESTEP
77500
ITEM: NUMBER OF ENTRIES
34
ITEM: BOX BOUNDS pp pp pp
-1.0000000000000000e+01 1.0000000000000000e+01
-1.0000000000000000e+01 1.0000000000000000e+01
-1.0000000000000000e+01 1.0000000000000000e+01
ITEM: ENTRIES index c_bondedatomid1 c_bondedatomid2 c_btype
1 12 17 2 
2 12 21 2 
3 10 11 1 
4 10 20 2 
5 20 21 1 
6 11 12 1 
7 11 28 2 
8 18 28 2 
9 18 20 2 
10 17 18 1 
11 5 6 1 
12 8 9 1 
13 4 5 1 
14 4 8 2 
15 23 24 1 
16 25 26 1 
17 26 27 1 
18 22 23 1 
19 22 27 2 
20 7 8 1 
21 6 7 2 
22 21 29 2 
23 29 30 1 
24 28 29 1 
25 16 17 1 
26 16 29 2 
27 16 19 2 
28 19 20 1 
29 2 3 1 
30 2 13 2 
31 13 14 1 
32 14 15 1 
33 1 2 1 
34 1 15 2 
ITEM: TIMESTEP
77600
ITEM: NUMBER OF ENTRIES
34
ITEM: BOX BOUNDS pp pp pp
-1.0000000000000000e+01 1.0000000000000000e+01
-1.0000000000000000e+01 1.0000000000000000e+01
-1.0000000000000000e+01 1.0000000000000000e+01
ITEM: ENTRIES index c_bondedatomid1 c_bondedatomid2 c_btype
1 12 17 2 
2 12 21 2 
3 10 11 1 
4 10 20 2 
5 20 21 1 
6 11 12 1 
7 11 28 2 
8 18 28 2 
9 18 20 2 
10 17 18 1 
11 5 6 1 
12 8 9 1 
13 4 5 1 
14 4 8 2 
15 23 24 1 
16 25 26 1 
17 26 27 1 
18 22 23 1 
19 22 27 2 
20 7 8 1 
21 6 7 2 
22 21 29 2 
23 29 30 1 
24 28 29 1 
25 16 17 1 
26 16 29 2 
27 16 19 2 
28 19 20 1 
29 2 3 1 
30 2 13 2 
31 13 14 1 
32 14 15 1 
33 1 2 1 
34 1 15 2 
ITEM: TIMESTEP
77700
ITEM: NUMBER OF ENTRIES
34
ITEM: BOX BOUNDS pp pp pp
-1.0000000000000000e+01 1.0000000000000000e+01
-1.0000000000000000e+01 1.0000000000000000e+01
-1.0000000000000000e+01 1.0000000000000000e+01
ITEM: ENTRIES index c_bondedatomid1 c_bondedatomid2 c_btype
1 12 17 2 
2 12 21 2 
3 10 11 1 
4 10 20 2 
5 20 21 1 
6 11 12 1 
7 11 28 2 
8 18 28 2 
9 18 20 2 
10 17 18 1 
11 5 6 1 
12 8 9 1 
13 4 5 1 
14 4 8 2 
15 23 24 1 
16 25 26 1 
17 26 27 1 
18 22 23 1 
19 22 27 2 
20 7 8 1 
21 6 7 2 
22 21 29 2 
23 29 30 1 
24 28 29 1 
25 16 17 1 
26 16 29 2 
27 16 19 2 
28 19 20 1 
29 2 3 1 
30 2 13 2 
31 13 14 1 
32 14 15 1 
33 1 2 1 
34 1 15 2 
ITEM: TIMESTEP
77800
ITEM: NUMBER OF ENTRIES
34
ITEM: BOX BOUNDS pp pp pp
-1.0000000000000000e+01 1.0000000000000000e+01
-1.0000000000000000e+01 1.0000000000000000e+01
-1.0000000000000000e+01 1.0000000000000000e+01
ITEM: ENTRIES index c_bondedatomid1 c_bondedatomid2 c_btype
1 12 17 2 
2 12 21 2 
3 10 11 1 
4 10 20 2 
5 20 21 1 
6 11 12 1 
7 11 28 2 
8 18 28 2 
9 18 20 2 
10 17 18 1 
11 5 6 1 
12 8 9 1 
13 4 5 1 
14 4 8 2 
15 23 24 1 
16 25 26 1 
17 26 27 1 
18 22 23 1 
19 22 27 2 
20 7 8 1 
21 6 7 2 
22 21 29 2 
23 29 30 1 
24 28 29 1 
25 16 17 1 
26 16 29 2 
27 16 19 2 
28 19 20 1 
29 2 3 1 
30 2 13 2 
31 13 14 1 
32 14 15 1 
33 1 2 1 
34 1 15 2 
ITEM: TIMESTEP
77900
ITEM: NUMBER OF ENTRIES
34
ITEM: BOX BOUNDS pp pp pp
-1.0000000000000000e+01 1.0000000000000000e+01
-1.0000000000000000e+01 1.0000000000000000e+01
-1.0000000000000000e+01 1.0000000000000000e+01
ITEM: ENTRIES index c_bondedatomid1 c_bondedatomid2 c_btype
1 12 17 2 
2 12 21 2 
3 10 11 1 
4 10 20 2 
5 20 21 1 
6 11 12 1 
7 11 28 2 
8 18 28 2 
9 18 20 2 
10 17 18 1 
11 5 6 1 
12 8 9 1 
13 4 5 1 
14 4 8 2 
15 23 24 1 
16 25 26 1 
17 26 27 1 
18 22 23 1 
19 22 27 2 
20 7 8 1 
21 6 7 2 
22 21 29 2 
23 29 30 1 
24 28 29 1 
25 16 17 1 
26 16 29 2 
27 16 19 2 
28 19 20 1 
29 2 3 1 
30 2 13 2 
31 13 14 1 
32 14 15 1 
33 1 2 1 
34 1 15 2 
ITEM: TIMESTEP
78000
ITEM: NUMBER OF ENTRIES
34
ITEM: BOX BOUNDS pp pp pp
-1.0000000000000000e+01 1.0000000000000000e+01
-1.0000000000000000e+01 1.0000000000000000e+01
-1.0000000000000000e+01 1.0000000000000000e+01
ITEM: ENTRIES index c_bondedatomid1 c_bondedatomid2 c_btype
1 12 17 2 
2 12 21 2 
3 10 11 1 
4 10 20 2 
5 20 21 1 
6 11 12 1 
7 11 28 2 
8 18 28 2 
9 18 20 2 
10 17 18 1 
11 5 6 1 
12 8 9 1 
13 4 5 1 
14 4 8 2 
15 23 24 1 
16 25 26 1 
17 26 27 1 
18 22 23 1 
19 22 27 2 
20 7 8 1 
21 6 7 2 
22 21 29 2 
23 29 30 1 
24 28 29 1 
25 16 17 1 
26 16 29 2 
27 16 19 2 
28 19 20 1 
29 2 3 1 
30 2 13 2 
31 13 14 1 
32 14 15 1 
33 1 2 1 
34 1 15 2 
ITEM: TIMESTEP
78100
ITEM: NUMBER OF ENTRIES
34
ITEM: BOX BOUNDS pp pp pp
-1.0000000000000000e+01 1.0000000000000000e+01
-1.0000000000000000e+01 1.0000000000000000e+01
-1.0000000000000000e+01 1.0000000000000000e+01
ITEM: ENTRIES index c_bondedatomid1 c_bondedatomid2 c_btype
1 12 17 2 
2 12 21 2 
3 10 11 1 
4 10 20 2 
5 20 21 1 
6 11 12 1 
7 11 28 2 
8 17 18 1 
9 29 30 1 
10 28 29 1 
11 8 9 1 
12 5 6 1 
13 4 5 1 
14 4 8 2 
15 7 8 1 
16 23 24 1 
17 22 23 1 
18 22 27 2 
19 25 26 1 
20 26 27 1 
21 6 7 2 
22 19 20 1 
23 18 28 2 
24 18 20 2 
25 21 29 2 
26 16 17 1 
27 16 29 2 
28 16 19 2 
29 2 3 1 
30 2 13 2 
31 13 14 1 
32 14 15 1 
33 1 2 1 
34 1 15 2 
ITEM: TIMESTEP
78200
ITEM: NUMBER OF ENTRIES
34
ITEM: BOX BOUNDS pp pp pp
-1.0000000000000000e+01 1.0000000000000000e+01
-1.0000000000000000e+01 1.0000000000000000e+01
-1.0000000000000000e+01 1.0000000000000000e+01
ITEM: ENTRIES index c_bondedatomid1 c_bondedatomid2 c_btype
1 12 17 2 
2 12 21 2 
3 10 11 1 
4 10 20 2 
5 20 21 1 
6 11 12 1 
7 11 28 2 
8 17 18 1 
9 29 30 1 
10 28 29 1 
11 8 9 1 
12 5 6 1 
13 4 5 1 
14 4 8 2 
15 7 8 1 
16 23 24 1 
17 22 23 1 
18 22 27 2 
19 25 26 1 
20 26 27 1 
21 6 7 2 
22 19 20 1 
23 18 28 2 
24 18 20 2 
25 21 29 2 
26 16 17 1 
27 16 29 2 
28 16 19 2 
29 2 3 1 
30 2 13 2 
31 13 14 1 
32 14 15 1 
33 1 2 1 
34 1 15 2 
ITEM: TIMESTEP
78300
ITEM: NUMBER OF ENTRIES
34
ITEM: BOX BOUNDS pp pp pp
-1.0000000000000000e+01 1.0000000000000000e+01
-1.0000000000000000e+01 1.0000000000000000e+01
-1.0000000000000000e+01 1.0000000000000000e+01
ITEM: ENTRIES index c_bondedatomid1 c_bondedatomid2 c_btype
1 12 17 2 
2 12 21 2 
3 10 11 1 
4 10 20 2 
5 20 21 1 
6 11 12 1 
7 11 28 2 
8 17 18 1 
9 29 30 1 
10 28 29 1 
11 8 9 1 
12 5 6 1 
13 4 5 1 
14 4 8 2 
15 7 8 1 
16 23 24 1 
17 22 23 1 
18 22 27 2 
19 25 26 1 
20 26 27 1 
21 6 7 2 
22 19 20 1 
23 18 28 2 
24 18 20 2 
25 21 29 2 
26 16 17 1 
27 16 29 2 
28 16 19 2 
29 2 3 1 
30 2 13 2 
31 13 14 1 
32 14 15 1 
33 1 2 1 
34 1 15 2 
ITEM: TIMESTEP
78400
ITEM: NUMBER OF ENTRIES
34
ITEM: BOX BOUNDS pp pp pp
-1.0000000000000000e+01 1.0000000000000000e+01
-1.0000000000000000e+01 1.0000000000000000e+01
-1.0000000000000000e+01 1.0000000000000000e+01
ITEM: ENTRIES index c_bondedatomid1 c_bondedatomid2 c_btype
1 12 17 2 
2 12 21 2 
3 10 11 1 
4 10 20 2 
5 20 21 1 
6 11 12 1 
7 11 28 2 
8 17 18 1 
9 29 30 1 
10 28 29 1 
11 8 9 1 
12 5 6 1 
13 4 5 1 
14 4 8 2 
15 7 8 1 
16 23 24 1 
17 22 23 1 
18 22 27 2 
19 25 26 1 
20 26 27 1 
21 6 7 2 
22 19 20 1 
23 18 28 2 
24 18 20 2 
25 21 29 2 
26 16 17 1 
27 16 29 2 
28 16 19 2 
29 2 3 1 
30 2 13 2 
31 13 14 1 
32 14 15 1 
33 1 2 1 
34 1 15 2 
ITEM: TIMESTEP
78500
ITEM: NUMBER OF ENTRIES
34
ITEM: BOX BOUNDS pp pp pp
-1.0000000000000000e+01 1.0000000000000000e+01
-1.0000000000000000e+01 1.0000000000000000e+01
-1.0000000000000000e+01 1.0000000000000000e+01
ITEM: ENTRIES index c_bondedatomid1 c_bondedatomid2 c_btype
1 12 17 2 
2 12 21 2 
3 10 11 1 
4 10 20 2 
5 20 21 1 
6 11 12 1 
7 11 28 2 
8 17 18 1 
9 29 30 1 
10 28 29 1 
11 8 9 1 
12 5 6 1 
13 4 5 1 
14 4 8 2 
15 7 8 1 
16 23 24 1 
17 22 23 1 
18 22 27 2 
19 25 26 1 
20 26 27 1 
21 6 7 2 
22 19 20 1 
23 18 28 2 
24 18 20 2 
25 21 29 2 
26 16 17 1 
27 16 29 2 
28 16 19 2 
29 2 3 1 
30 2 13 2 
31 13 14 1 
32 14 15 1 
33 1 2 1 
34 1 15 2 
ITEM: TIMESTEP
78600
ITEM: NUMBER OF ENTRIES
34
ITEM: BOX BOUNDS pp pp pp
-1.0000000000000000e+01 1.0000000000000000e+01
-1.0000000000000000e+01 1.0000000000000000e+01
-1.0000000000000000e+01 1.0000000000000000e+01
ITEM: ENTRIES index c_bondedatomid1 c_bondedatomid2 c_btype
1 12 17 2 
2 12 21 2 
3 10 11 1 
4 10 20 2 
5 20 21 1 
6 11 12 1 
7 11 28 2 
8 17 18 1 
9 29 30 1 
10 28 29 1 
11 8 9 1 
12 5 6 1 
13 4 5 1 
14 4 8 2 
15 7 8 1 
16 23 24 1 
17 22 23 1 
18 22 27 2 
19 25 26 1 
20 26 27 1 
21 6 7 2 
22 19 20 1 
23 18 28 2 
24 18 20 2 
25 21 29 2 
26 16 17 1 
27 16 29 2 
28 16 19 2 
29 2 3 1 
30 2 13 2 
31 13 14 1 
32 14 15 1 
33 1 2 1 
34 1 15 2 
ITEM: TIMESTEP
78700
ITEM: NUMBER OF ENTRIES
34
ITEM: BOX BOUNDS pp pp pp
-1.0000000000000000e+01 1.0000000000000000e+01
-1.0000000000000000e+01 1.0000000000000000e+01
-1.0000000000000000e+01 1.0000000000000000e+01
ITEM: ENTRIES index c_bondedatomid1 c_bondedatomid2 c_btype
1 12 17 2 
2 12 21 2 
3 10 11 1 
4 10 20 2 
5 20 21 1 
6 11 12 1 
7 11 28 2 
8 17 18 1 
9 29 30 1 
10 28 29 1 
11 8 9 1 
12 5 6 1 
13 4 5 1 
14 4 8 2 
15 7 8 1 
16 23 24 1 
17 22 23 1 
18 22 27 2 
19 25 26 1 
20 26 27 1 
21 6 7 2 
22 19 20 1 
23 18 28 2 
24 18 20 2 
25 21 29 2 
26 16 17 1 
27 16 29 2 
28 16 19 2 
29 2 3 1 
30 2 13 2 
31 13 14 1 
32 14 15 1 
33 1 2 1 
34 1 15 2 
ITEM: TIMESTEP
78800
ITEM: NUMBER OF ENTRIES
34
ITEM: BOX BOUNDS pp pp pp
-1.0000000000000000e+01 1.0000000000000000e+01
-1.0000000000000000e+01 1.0000000000000000e+01
-1.0000000000000000e+01 1.0000000000000000e+01
ITEM: ENTRIES index c_bondedatomid1 c_bondedatomid2 c_btype
1 12 17 2 
2 12 21 2 
3 10 11 1 
4 10 20 2 
5 20 21 1 
6 11 12 1 
7 11 28 2 
8 17 18 1 
9 29 30 1 
10 28 29 1 
11 8 9 1 
12 5 6 1 
13 4 5 1 
14 4 8 2 
15 7 8 1 
16 23 24 1 
17 22 23 1 
18 22 27 2 
19 25 26 1 
20 26 27 1 
21 6 7 2 
22 19 20 1 
23 18 28 2 
24 18 20 2 
25 21 29 2 
26 16 17 1 
27 16 29 2 
28 16 19 2 
29 2 3 1 
30 2 13 2 
31 13 14 1 
32 14 15 1 
33 1 2 1 
34 1 15 2 
ITEM: TIMESTEP
78900
ITEM: NUMBER OF ENTRIES
34
ITEM: BOX BOUNDS pp pp pp
-1.0000000000000000e+01 1.0000000000000000e+01
-1.0000000000000000e+01 1.0000000000000000e+01
-1.0000000000000000e+01 1.0000000000000000e+01
ITEM: ENTRIES index c_bondedatomid1 c_bondedatomid2 c_btype
1 12 17 2 
2 12 21 2 
3 10 11 1 
4 10 20 2 
5 20 21 1 
6 11 12 1 
7 11 28 2 
8 17 18 1 
9 29 30 1 
10 28 29 1 
11 8 9 1 
12 5 6 1 
13 4 5 1 
14 4 8 2 
15 7 8 1 
16 23 24 1 
17 22 23 1 
18 22 27 2 
19 25 26 1 
20 26 27 1 
21 6 7 2 
22 19 20 1 
23 18 28 2 
24 18 20 2 
25 21 29 2 
26 16 17 1 
27 16 29 2 
28 16 19 2 
29 2 3 1 
30 2 13 2 
31 13 14 1 
32 14 15 1 
33 1 2 1 
34 1 15 2 
ITEM: TIMESTEP
79000
ITEM: NUMBER OF ENTRIES
34
ITEM: BOX BOUNDS pp pp pp
-1.0000000000000000e+01 1.0000000000000000e+01
-1.0000000000000000e+01 1.0000000000000000e+01
-1.0000000000000000e+01 1.0000000000000000e+01
ITEM: ENTRIES index c_bondedatomid1 c_bondedatomid2 c_btype
1 12 17 2 
2 12 21 2 
3 10 11 1 
4 10 20 2 
5 20 21 1 
6 11 12 1 
7 11 28 2 
8 17 18 1 
9 29 30 1 
10 28 29 1 
11 8 9 1 
12 5 6 1 
13 4 5 1 
14 4 8 2 
15 7 8 1 
16 23 24 1 
17 22 23 1 
18 22 27 2 
19 25 26 1 
20 26 27 1 
21 6 7 2 
22 19 20 1 
23 18 28 2 
24 18 20 2 
25 21 29 2 
26 16 17 1 
27 16 29 2 
28 16 19 2 
29 2 3 1 
30 2 13 2 
31 13 14 1 
32 14 15 1 
33 1 2 1 
34 1 15 2 
ITEM: TIMESTEP
79100
ITEM: NUMBER OF ENTRIES
34
ITEM: BOX BOUNDS pp pp pp
-1.0000000000000000e+01 1.0000000000000000e+01
-1.0000000000000000e+01 1.0000000000000000e+01
-1.0000000000000000e+01 1.0000000000000000e+01
ITEM: ENTRIES index c_bondedatomid1 c_bondedatomid2 c_btype
1 17 18 1 
2 10 11 1 
3 10 20 2 
4 11 12 1 
5 11 28 2 
6 18 28 2 
7 18 20 2 
8 21 29 2 
9 12 17 2 
10 12 21 2 
11 20 21 1 
12 29 30 1 
13 16 17 1 
14 16 29 2 
15 16 19 2 
16 14 15 1 
17 8 9 1 
18 5 6 1 
19 4 5 1 
20 4 8 2 
21 7 8 1 
22 23 24 1 
23 22 23 1 
24 22 27 2 
25 25 26 1 
26 26 27 1 
27 6 7 2 
28 28 29 1 
29 19 20 1 
30 2 3 1 
31 2 13 2 
32 13 14 1 
33 1 2 1 
34 1 15 2 
ITEM: TIMESTEP
79200
ITEM: NUMBER OF ENTRIES
34
ITEM: BOX BOUNDS pp pp pp
-1.0000000000000000e+01 1.0000000000000000e+01
-1.0000000000000000e+01 1.0000000000000000e+01
-1.0000000000000000e+01 1.0000000000000000e+01
ITEM: ENTRIES index c_bondedatomid1 c_bondedatomid2 c_btype
1 17 18 1 
2 10 11 1 
3 10 20 2 
4 11 12 1 
5 11 28 2 
6 18 28 2 
7 18 20 2 
8 21 29 2 
9 12 17 2 
10 12 21 2 
11 20 21 1 
12 29 30 1 
13 16 17 1 
14 16 29 2 
15 16 19 2 
16 14 15 1 
17 8 9 1 
18 5 6 1 
19 4 5 1 
20 4 8 2 
21 7 8 1 
22 23 24 1 
23 22 23 1 
24 22 27 2 
25 25 26 1 
26 26 27 1 
27 6 7 2 
28 28 29 1 
29 19 20 1 
30 2 3 1 
31 2 13 2 
32 13 14 1 
33 1 2 1 
34 1 15 2 
ITEM: TIMESTEP
79300
ITEM: NUMBER OF ENTRIES
34
ITEM: BOX BOUNDS pp pp pp
-1.0000000000000000e+01 1.0000000000000000e+01
-1.0000000000000000e+01 1.0000000000000000e+01
-1.0000000000000000e+01 1.0000000000000000e+01
ITEM: ENTRIES index c_bondedatomid1 c_bondedatomid2 c_btype
1 17 18 1 
2 10 11 1 
3 10 20 2 
4 11 12 1 
5 11 28 2 
6 18 28 2 
7 18 20 2 
8 21 29 2 
9 12 17 2 
10 12 21 2 
11 20 21 1 
12 29 30 1 
13 16 17 1 
14 16 29 2 
15 16 19 2 
16 14 15 1 
17 8 9 1 
18 5 6 1 
19 4 5 1 
20 4 8 2 
21 7 8 1 
22 23 24 1 
23 22 23 1 
24 22 27 2 
25 25 26 1 
26 26 27 1 
27 6 7 2 
28 28 29 1 
29 19 20 1 
30 2 3 1 
31 2 13 2 
32 13 14 1 
33 1 2 1 
34 1 15 2 
ITEM: TIMESTEP
79400
ITEM: NUMBER OF ENTRIES
34
ITEM: BOX BOUNDS pp pp pp
-1.0000000000000000e+01 1.0000000000000000e+01
-1.0000000000000000e+01 1.0000000000000000e+01
-1.0000000000000000e+01 1.0000000000000000e+01
ITEM: ENTRIES index c_bondedatomid1 c_bondedatomid2 c_btype
1 17 18 1 
2 10 11 1 
3 10 20 2 
4 11 12 1 
5 11 28 2 
6 18 28 2 
7 18 20 2 
8 21 29 2 
9 12 17 2 
10 12 21 2 
11 20 21 1 
12 29 30 1 
13 16 17 1 
14 16 29 2 
15 16 19 2 
16 14 15 1 
17 8 9 1 
18 5 6 1 
19 4 5 1 
20 4 8 2 
21 7 8 1 
22 23 24 1 
23 22 23 1 
24 22 27 2 
25 25 26 1 
26 26 27 1 
27 6 7 2 
28 28 29 1 
29 19 20 1 
30 2 3 1 
31 2 13 2 
32 13 14 1 
33 1 2 1 
34 1 15 2 
ITEM: TIMESTEP
79500
ITEM: NUMBER OF ENTRIES
34
ITEM: BOX BOUNDS pp pp pp
-1.0000000000000000e+01 1.0000000000000000e+01
-1.0000000000000000e+01 1.0000000000000000e+01
-1.0000000000000000e+01 1.0000000000000000e+01
ITEM: ENTRIES index c_bondedatomid1 c_bondedatomid2 c_btype
1 17 18 1 
2 10 11 1 
3 10 20 2 
4 11 12 1 
5 11 28 2 
6 18 28 2 
7 18 20 2 
8 21 29 2 
9 12 17 2 
10 12 21 2 
11 20 21 1 
12 29 30 1 
13 16 17 1 
14 16 29 2 
15 16 19 2 
16 14 15 1 
17 8 9 1 
18 5 6 1 
19 4 5 1 
20 4 8 2 
21 7 8 1 
22 23 24 1 
23 22 23 1 
24 22 27 2 
25 25 26 1 
26 26 27 1 
27 6 7 2 
28 28 29 1 
29 19 20 1 
30 2 3 1 
31 2 13 2 
32 13 14 1 
33 1 2 1 
34 1 15 2 
ITEM: TIMESTEP
79600
ITEM: NUMBER OF ENTRIES
34
ITEM: BOX BOUNDS pp pp pp
-1.0000000000000000e+01 1.0000000000000000e+01
-1.0000000000000000e+01 1.0000000000000000e+01
-1.0000000000000000e+01 1.0000000000000000e+01
ITEM: ENTRIES index c_bondedatomid1 c_bondedatomid2 c_btype
1 17 18 1 
2 10 11 1 
3 10 20 2 
4 11 12 1 
5 11 28 2 
6 18 28 2 
7 18 20 2 
8 21 29 2 
9 12 17 2 
10 12 21 2 
11 20 21 1 
12 29 30 1 
13 16 17 1 
14 16 29 2 
15 16 19 2 
16 14 15 1 
17 8 9 1 
18 5 6 1 
19 4 5 1 
20 4 8 2 
21 7 8 1 
22 23 24 1 
23 22 23 1 
24 22 27 2 
25 25 26 1 
26 26 27 1 
27 6 7 2 
28 28 29 1 
29 19 20 1 
30 2 3 1 
31 2 13 2 
32 13 14 1 
33 1 2 1 
34 1 15 2 
ITEM: TIMESTEP
79700
ITEM: NUMBER OF ENTRIES
34
ITEM: BOX BOUNDS pp pp pp
-1.0000000000000000e+01 1.0000000000000000e+01
-1.0000000000000000e+01 1.0000000000000000e+01
-1.0000000000000000e+01 1.0000000000000000e+01
ITEM: ENTRIES index c_bondedatomid1 c_bondedatomid2 c_btype
1 17 18 1 
2 10 11 1 
3 10 20 2 
4 11 12 1 
5 11 28 2 
6 18 28 2 
7 18 20 2 
8 21 29 2 
9 12 17 2 
10 12 21 2 
11 20 21 1 
12 29 30 1 
13 16 17 1 
14 16 29 2 
15 16 19 2 
16 14 15 1 
17 8 9 1 
18 5 6 1 
19 4 5 1 
20 4 8 2 
21 7 8 1 
22 23 24 1 
23 22 23 1 
24 22 27 2 
25 25 26 1 
26 26 27 1 
27 6 7 2 
28 28 29 1 
29 19 20 1 
30 2 3 1 
31 2 13 2 
32 13 14 1 
33 1 2 1 
34 1 15 2 
ITEM: TIMESTEP
79800
ITEM: NUMBER OF ENTRIES
34
ITEM: BOX BOUNDS pp pp pp
-1.0000000000000000e+01 1.0000000000000000e+01
-1.0000000000000000e+01 1.0000000000000000e+01
-1.0000000000000000e+01 1.0000000000000000e+01
ITEM: ENTRIES index c_bondedatomid1 c_bondedatomid2 c_btype
1 17 18 1 
2 10 11 1 
3 10 20 2 
4 11 12 1 
5 11 28 2 
6 18 28 2 
7 18 20 2 
8 21 29 2 
9 12 17 2 
10 12 21 2 
11 20 21 1 
12 29 30 1 
13 16 17 1 
14 16 29 2 
15 16 19 2 
16 14 15 1 
17 8 9 1 
18 5 6 1 
19 4 5 1 
20 4 8 2 
21 7 8 1 
22 23 24 1 
23 22 23 1 
24 22 27 2 
25 25 26 1 
26 26 27 1 
27 6 7 2 
28 28 29 1 
29 19 20 1 
30 2 3 1 
31 2 13 2 
32 13 14 1 
33 1 2 1 
34 1 15 2 
ITEM: TIMESTEP
79900
ITEM: NUMBER OF ENTRIES
34
ITEM: BOX BOUNDS pp pp pp
-1.0000000000000000e+01 1.0000000000000000e+01
-1.0000000000000000e+01 1.0000000000000000e+01
-1.0000000000000000e+01 1.0000000000000000e+01
ITEM: ENTRIES index c_bondedatomid1 c_bondedatomid2 c_btype
1 17 18 1 
2 10 11 1 
3 10 20 2 
4 11 12 1 
5 11 28 2 
6 18 28 2 
7 18 20 2 
8 21 29 2 
9 12 17 2 
10 12 21 2 
11 20 21 1 
12 29 30 1 
13 16 17 1 
14 16 29 2 
15 16 19 2 
16 14 15 1 
17 8 9 1 
18 5 6 1 
19 4 5 1 
20 4 8 2 
21 7 8 1 
22 23 24 1 
23 22 23 1 
24 22 27 2 
25 25 26 1 
26 26 27 1 
27 6 7 2 
28 28 29 1 
29 19 20 1 
30 2 3 1 
31 2 13 2 
32 13 14 1 
33 1 2 1 
34 1 15 2 
ITEM: TIMESTEP
80000
ITEM: NUMBER OF ENTRIES
34
ITEM: BOX BOUNDS pp pp pp
-1.0000000000000000e+01 1.0000000000000000e+01
-1.0000000000000000e+01 1.0000000000000000e+01
-1.0000000000000000e+01 1.0000000000000000e+01
ITEM: ENTRIES index c_bondedatomid1 c_bondedatomid2 c_btype
1 17 18 1 
2 10 11 1 
3 10 20 2 
4 11 12 1 
5 11 28 2 
6 18 28 2 
7 18 20 2 
8 21 29 2 
9 12 17 2 
10 12 21 2 
11 20 21 1 
12 29 30 1 
13 16 17 1 
14 16 29 2 
15 16 19 2 
16 14 15 1 
17 8 9 1 
18 5 6 1 
19 4 5 1 
20 4 8 2 
21 7 8 1 
22 23 24 1 
23 22 23 1 
24 22 27 2 
25 25 26 1 
26 26 27 1 
27 6 7 2 
28 28 29 1 
29 19 20 1 
30 2 3 1 
31 2 13 2 
32 13 14 1 
33 1 2 1 
34 1 15 2 
ITEM: TIMESTEP
80100
ITEM: NUMBER OF ENTRIES
34
ITEM: BOX BOUNDS pp pp pp
-1.0000000000000000e+01 1.0000000000000000e+01
-1.0000000000000000e+01 1.0000000000000000e+01
-1.0000000000000000e+01 1.0000000000000000e+01
ITEM: ENTRIES index c_bondedatomid1 c_bondedatomid2 c_btype
1 17 18 1 
2 10 11 1 
3 10 20 2 
4 11 12 1 
5 11 28 2 
6 18 28 2 
7 18 20 2 
8 21 29 2 
9 12 17 2 
10 12 21 2 
11 20 21 1 
12 29 30 1 
13 16 17 1 
14 16 29 2 
15 16 19 2 
16 14 15 1 
17 8 9 1 
18 5 6 1 
19 4 5 1 
20 4 8 2 
21 7 8 1 
22 23 24 1 
23 22 23 1 
24 22 27 2 
25 25 26 1 
26 26 27 1 
27 6 7 2 
28 28 29 1 
29 19 20 1 
30 2 3 1 
31 2 13 2 
32 13 14 1 
33 1 2 1 
34 1 15 2 
ITEM: TIMESTEP
80200
ITEM: NUMBER OF ENTRIES
34
ITEM: BOX BOUNDS pp pp pp
-1.0000000000000000e+01 1.0000000000000000e+01
-1.0000000000000000e+01 1.0000000000000000e+01
-1.0000000000000000e+01 1.0000000000000000e+01
ITEM: ENTRIES index c_bondedatomid1 c_bondedatomid2 c_btype
1 28 29 1 
2 18 28 2 
3 18 20 2 
4 21 29 2 
5 17 18 1 
6 20 21 1 
7 29 30 1 
8 16 17 1 
9 16 29 2 
10 16 19 2 
11 19 20 1 
12 8 9 1 
13 5 6 1 
14 4 5 1 
15 4 8 2 
16 7 8 1 
17 6 7 2 
18 23 24 1 
19 22 23 1 
20 22 27 2 
21 25 26 1 
22 26 27 1 
23 12 17 2 
24 12 21 2 
25 10 11 1 
26 10 20 2 
27 11 12 1 
28 11 28 2 
29 14 15 1 
30 13 14 1 
31 1 2 1 
32 1 15 2 
33 2 3 1 
34 2 13 2 
ITEM: TIMESTEP
80300
ITEM: NUMBER OF ENTRIES
34
ITEM: BOX BOUNDS pp pp pp
-1.0000000000000000e+01 1.0000000000000000e+01
-1.0000000000000000e+01 1.0000000000000000e+01
-1.0000000000000000e+01 1.0000000000000000e+01
ITEM: ENTRIES index c_bondedatomid1 c_bondedatomid2 c_btype
1 28 29 1 
2 18 28 2 
3 18 20 2 
4 21 29 2 
5 17 18 1 
6 20 21 1 
7 29 30 1 
8 16 17 1 
9 16 29 2 
10 16 19 2 
11 19 20 1 
12 8 9 1 
13 5 6 1 
14 4 5 1 
15 4 8 2 
16 7 8 1 
17 6 7 2 
18 23 24 1 
19 22 23 1 
20 22 27 2 
21 25 26 1 
22 26 27 1 
23 12 17 2 
24 12 21 2 
25 10 11 1 
26 10 20 2 
27 11 12 1 
28 11 28 2 
29 14 15 1 
30 13 14 1 
31 1 2 1 
32 1 15 2 
33 2 3 1 
34 2 13 2 
ITEM: TIMESTEP
80400
ITEM: NUMBER OF ENTRIES
34
ITEM: BOX BOUNDS pp pp pp
-1.0000000000000000e+01 1.0000000000000000e+01
-1.0000000000000000e+01 1.0000000000000000e+01
-1.0000000000000000e+01 1.0000000000000000e+01
ITEM: ENTRIES index c_bondedatomid1 c_bondedatomid2 c_btype
1 28 29 1 
2 18 28 2 
3 18 20 2 
4 21 29 2 
5 17 18 1 
6 20 21 1 
7 29 30 1 
8 16 17 1 
9 16 29 2 
10 16 19 2 
11 19 20 1 
12 8 9 1 
13 5 6 1 
14 4 5 1 
15 4 8 2 
16 7 8 1 
17 6 7 2 
18 23 24 1 
19 22 23 1 
20 22 27 2 
21 25 26 1 
22 26 27 1 
23 12 17 2 
24 12 21 2 
25 10 11 1 
26 10 20 2 
27 11 12 1 
28 11 28 2 
29 14 15 1 
30 13 14 1 
31 1 2 1 
32 1 15 2 
33 2 3 1 
34 2 13 2 
ITEM: TIMESTEP
80500
ITEM: NUMBER OF ENTRIES
34
ITEM: BOX BOUNDS pp pp pp
-1.0000000000000000e+01 1.0000000000000000e+01
-1.0000000000000000e+01 1.0000000000000000e+01
-1.0000000000000000e+01 1.0000000000000000e+01
ITEM: ENTRIES index c_bondedatomid1 c_bondedatomid2 c_btype
1 28 29 1 
2 18 28 2 
3 18 20 2 
4 21 29 2 
5 17 18 1 
6 20 21 1 
7 29 30 1 
8 16 17 1 
9 16 29 2 
10 16 19 2 
11 19 20 1 
12 8 9 1 
13 5 6 1 
14 4 5 1 
15 4 8 2 
16 7 8 1 
17 6 7 2 
18 23 24 1 
19 22 23 1 
20 22 27 2 
21 25 26 1 
22 26 27 1 
23 12 17 2 
24 12 21 2 
25 10 11 1 
26 10 20 2 
27 11 12 1 
28 11 28 2 
29 14 15 1 
30 13 14 1 
31 1 2 1 
32 1 15 2 
33 2 3 1 
34 2 13 2 
ITEM: TIMESTEP
80600
ITEM: NUMBER OF ENTRIES
34
ITEM: BOX BOUNDS pp pp pp
-1.0000000000000000e+01 1.0000000000000000e+01
-1.0000000000000000e+01 1.0000000000000000e+01
-1.0000000000000000e+01 1.0000000000000000e+01
ITEM: ENTRIES index c_bondedatomid1 c_bondedatomid2 c_btype
1 28 29 1 
2 18 28 2 
3 18 20 2 
4 21 29 2 
5 17 18 1 
6 20 21 1 
7 29 30 1 
8 16 17 1 
9 16 29 2 
10 16 19 2 
11 19 20 1 
12 8 9 1 
13 5 6 1 
14 4 5 1 
15 4 8 2 
16 7 8 1 
17 6 7 2 
18 23 24 1 
19 22 23 1 
20 22 27 2 
21 25 26 1 
22 26 27 1 
23 12 17 2 
24 12 21 2 
25 10 11 1 
26 10 20 2 
27 11 12 1 
28 11 28 2 
29 14 15 1 
30 13 14 1 
31 1 2 1 
32 1 15 2 
33 2 3 1 
34 2 13 2 
ITEM: TIMESTEP
80700
ITEM: NUMBER OF ENTRIES
34
ITEM: BOX BOUNDS pp pp pp
-1.0000000000000000e+01 1.0000000000000000e+01
-1.0000000000000000e+01 1.0000000000000000e+01
-1.0000000000000000e+01 1.0000000000000000e+01
ITEM: ENTRIES index c_bondedatomid1 c_bondedatomid2 c_btype
1 28 29 1 
2 18 28 2 
3 18 20 2 
4 21 29 2 
5 17 18 1 
6 20 21 1 
7 29 30 1 
8 16 17 1 
9 16 29 2 
10 16 19 2 
11 19 20 1 
12 8 9 1 
13 5 6 1 
14 4 5 1 
15 4 8 2 
16 7 8 1 
17 6 7 2 
18 23 24 1 
19 22 23 1 
20 22 27 2 
21 25 26 1 
22 26 27 1 
23 12 17 2 
24 12 21 2 
25 10 11 1 
26 10 20 2 
27 11 12 1 
28 11 28 2 
29 14 15 1 
30 13 14 1 
31 1 2 1 
32 1 15 2 
33 2 3 1 
34 2 13 2 
ITEM: TIMESTEP
80800
ITEM: NUMBER OF ENTRIES
34
ITEM: BOX BOUNDS pp pp pp
-1.0000000000000000e+01 1.0000000000000000e+01
-1.0000000000000000e+01 1.0000000000000000e+01
-1.0000000000000000e+01 1.0000000000000000e+01
ITEM: ENTRIES index c_bondedatomid1 c_bondedatomid2 c_btype
1 28 29 1 
2 18 28 2 
3 18 20 2 
4 21 29 2 
5 17 18 1 
6 20 21 1 
7 29 30 1 
8 16 17 1 
9 16 29 2 
10 16 19 2 
11 19 20 1 
12 8 9 1 
13 5 6 1 
14 4 5 1 
15 4 8 2 
16 7 8 1 
17 6 7 2 
18 23 24 1 
19 22 23 1 
20 22 27 2 
21 25 26 1 
22 26 27 1 
23 12 17 2 
24 12 21 2 
25 10 11 1 
26 10 20 2 
27 11 12 1 
28 11 28 2 
29 14 15 1 
30 13 14 1 
31 1 2 1 
32 1 15 2 
33 2 3 1 
34 2 13 2 
ITEM: TIMESTEP
80900
ITEM: NUMBER OF ENTRIES
34
ITEM: BOX BOUNDS pp pp pp
-1.0000000000000000e+01 1.0000000000000000e+01
-1.0000000000000000e+01 1.0000000000000000e+01
-1.0000000000000000e+01 1.0000000000000000e+01
ITEM: ENTRIES index c_bondedatomid1 c_bondedatomid2 c_btype
1 28 29 1 
2 18 28 2 
3 18 20 2 
4 21 29 2 
5 17 18 1 
6 20 21 1 
7 29 30 1 
8 16 17 1 
9 16 29 2 
10 16 19 2 
11 19 20 1 
12 8 9 1 
13 5 6 1 
14 4 5 1 
15 4 8 2 
16 7 8 1 
17 6 7 2 
18 23 24 1 
19 22 23 1 
20 22 27 2 
21 25 26 1 
22 26 27 1 
23 12 17 2 
24 12 21 2 
25 10 11 1 
26 10 20 2 
27 11 12 1 
28 11 28 2 
29 14 15 1 
30 13 14 1 
31 1 2 1 
32 1 15 2 
33 2 3 1 
34 2 13 2 
ITEM: TIMESTEP
81000
ITEM: NUMBER OF ENTRIES
34
ITEM: BOX BOUNDS pp pp pp
-1.0000000000000000e+01 1.0000000000000000e+01
-1.0000000000000000e+01 1.0000000000000000e+01
-1.0000000000000000e+01 1.0000000000000000e+01
ITEM: ENTRIES index c_bondedatomid1 c_bondedatomid2 c_btype
1 28 29 1 
2 18 28 2 
3 18 20 2 
4 21 29 2 
5 17 18 1 
6 20 21 1 
7 29 30 1 
8 16 17 1 
9 16 29 2 
10 16 19 2 
11 19 20 1 
12 8 9 1 
13 5 6 1 
14 4 5 1 
15 4 8 2 
16 7 8 1 
17 6 7 2 
18 23 24 1 
19 22 23 1 
20 22 27 2 
21 25 26 1 
22 26 27 1 
23 12 17 2 
24 12 21 2 
25 10 11 1 
26 10 20 2 
27 11 12 1 
28 11 28 2 
29 14 15 1 
30 13 14 1 
31 1 2 1 
32 1 15 2 
33 2 3 1 
34 2 13 2 
ITEM: TIMESTEP
81100
ITEM: NUMBER OF ENTRIES
34
ITEM: BOX BOUNDS pp pp pp
-1.0000000000000000e+01 1.0000000000000000e+01
-1.0000000000000000e+01 1.0000000000000000e+01
-1.0000000000000000e+01 1.0000000000000000e+01
ITEM: ENTRIES index c_bondedatomid1 c_bondedatomid2 c_btype
1 28 29 1 
2 18 28 2 
3 18 20 2 
4 21 29 2 
5 17 18 1 
6 20 21 1 
7 29 30 1 
8 16 17 1 
9 16 29 2 
10 16 19 2 
11 19 20 1 
12 8 9 1 
13 5 6 1 
14 4 5 1 
15 4 8 2 
16 7 8 1 
17 6 7 2 
18 23 24 1 
19 22 23 1 
20 22 27 2 
21 25 26 1 
22 26 27 1 
23 12 17 2 
24 12 21 2 
25 10 11 1 
26 10 20 2 
27 11 12 1 
28 11 28 2 
29 14 15 1 
30 13 14 1 
31 1 2 1 
32 1 15 2 
33 2 3 1 
34 2 13 2 
ITEM: TIMESTEP
81200
ITEM: NUMBER OF ENTRIES
34
ITEM: BOX BOUNDS pp pp pp
-1.0000000000000000e+01 1.0000000000000000e+01
-1.0000000000000000e+01 1.0000000000000000e+01
-1.0000000000000000e+01 1.0000000000000000e+01
ITEM: ENTRIES index c_bondedatomid1 c_bondedatomid2 c_btype
1 18 28 2 
2 18 20 2 
3 11 12 1 
4 11 28 2 
5 28 29 1 
6 17 18 1 
7 29 30 1 
8 12 17 2 
9 12 21 2 
10 8 9 1 
11 5 6 1 
12 4 5 1 
13 4 8 2 
14 7 8 1 
15 6 7 2 
16 23 24 1 
17 22 23 1 
18 22 27 2 
19 26 27 1 
20 25 26 1 
21 10 11 1 
22 10 20 2 
23 21 29 2 
24 20 21 1 
25 16 17 1 
26 16 29 2 
27 16 19 2 
28 19 20 1 
29 14 15 1 
30 13 14 1 
31 1 2 1 
32 1 15 2 
33 2 3 1 
34 2 13 2 
ITEM: TIMESTEP
81300
ITEM: NUMBER OF ENTRIES
34
ITEM: BOX BOUNDS pp pp pp
-1.0000000000000000e+01 1.0000000000000000e+01
-1.0000000000000000e+01 1.0000000000000000e+01
-1.0000000000000000e+01 1.0000000000000000e+01
ITEM: ENTRIES index c_bondedatomid1 c_bondedatomid2 c_btype
1 18 28 2 
2 18 20 2 
3 11 12 1 
4 11 28 2 
5 28 29 1 
6 17 18 1 
7 29 30 1 
8 12 17 2 
9 12 21 2 
10 8 9 1 
11 5 6 1 
12 4 5 1 
13 4 8 2 
14 7 8 1 
15 6 7 2 
16 23 24 1 
17 22 23 1 
18 22 27 2 
19 26 27 1 
20 25 26 1 
21 10 11 1 
22 10 20 2 
23 21 29 2 
24 20 21 1 
25 16 17 1 
26 16 29 2 
27 16 19 2 
28 19 20 1 
29 14 15 1 
30 13 14 1 
31 1 2 1 
32 1 15 2 
33 2 3 1 
34 2 13 2 
ITEM: TIMESTEP
81400
ITEM: NUMBER OF ENTRIES
34
ITEM: BOX BOUNDS pp pp pp
-1.0000000000000000e+01 1.0000000000000000e+01
-1.0000000000000000e+01 1.0000000000000000e+01
-1.0000000000000000e+01 1.0000000000000000e+01
ITEM: ENTRIES index c_bondedatomid1 c_bondedatomid2 c_btype
1 18 28 2 
2 18 20 2 
3 11 12 1 
4 11 28 2 
5 28 29 1 
6 17 18 1 
7 29 30 1 
8 12 17 2 
9 12 21 2 
10 8 9 1 
11 5 6 1 
12 4 5 1 
13 4 8 2 
14 7 8 1 
15 6 7 2 
16 23 24 1 
17 22 23 1 
18 22 27 2 
19 26 27 1 
20 25 26 1 
21 10 11 1 
22 10 20 2 
23 21 29 2 
24 20 21 1 
25 16 17 1 
26 16 29 2 
27 16 19 2 
28 19 20 1 
29 14 15 1 
30 13 14 1 
31 1 2 1 
32 1 15 2 
33 2 3 1 
34 2 13 2 
ITEM: TIMESTEP
81500
ITEM: NUMBER OF ENTRIES
35
ITEM: BOX BOUNDS pp pp pp
-1.0000000000000000e+01 1.0000000000000000e+01
-1.0000000000000000e+01 1.0000000000000000e+01
-1.0000000000000000e+01 1.0000000000000000e+01
ITEM: ENTRIES index c_bondedatomid1 c_bondedatomid2 c_btype
1 18 28 2 
2 18 20 2 
3 11 12 1 
4 11 28 2 
5 28 29 1 
6 17 18 1 
7 29 30 1 
8 12 17 2 
9 12 21 2 
10 8 9 1 
11 5 6 1 
12 4 5 1 
13 4 8 2 
14 7 8 1 
15 6 7 2 
16 23 24 1 
17 22 23 1 
18 22 27 2 
19 26 27 1 
20 25 26 1 
21 10 11 1 
22 10 20 2 
23 10 30 2 
24 21 29 2 
25 20 21 1 
26 16 17 1 
27 16 29 2 
28 16 19 2 
29 19 20 1 
30 14 15 1 
31 13 14 1 
32 1 2 1 
33 1 15 2 
34 2 3 1 
35 2 13 2 
ITEM: TIMESTEP
81600
ITEM: NUMBER OF ENTRIES
35
ITEM: BOX BOUNDS pp pp pp
-1.0000000000000000e+01 1.0000000000000000e+01
-1.0000000000000000e+01 1.0000000000000000e+01
-1.0000000000000000e+01 1.0000000000000000e+01
ITEM: ENTRIES index c_bondedatomid1 c_bondedatomid2 c_btype
1 18 28 2 
2 18 20 2 
3 11 12 1 
4 11 28 2 
5 28 29 1 
6 17 18 1 
7 29 30 1 
8 12 17 2 
9 12 21 2 
10 8 9 1 
11 5 6 1 
12 4 5 1 
13 4 8 2 
14 7 8 1 
15 6 7 2 
16 23 24 1 
17 22 23 1 
18 22 27 2 
19 26 27 1 
20 25 26 1 
21 10 11 1 
22 10 20 2 
23 10 30 2 
24 21 29 2 
25 20 21 1 
26 16 17 1 
27 16 29 2 
28 16 19 2 
29 19 20 1 
30 14 15 1 
31 13 14 1 
32 1 2 1 
33 1 15 2 
34 2 3 1 
35 2 13 2 
ITEM: TIMESTEP
81700
ITEM: NUMBER OF ENTRIES
35
ITEM: BOX BOUNDS pp pp pp
-1.0000000000000000e+01 1.0000000000000000e+01
-1.0000000000000000e+01 1.0000000000000000e+01
-1.0000000000000000e+01 1.0000000000000000e+01
ITEM: ENTRIES index c_bondedatomid1 c_bondedatomid2 c_btype
1 18 28 2 
2 18 20 2 
3 11 12 1 
4 11 28 2 
5 28 29 1 
6 17 18 1 
7 29 30 1 
8 12 17 2 
9 12 21 2 
10 8 9 1 
11 5 6 1 
12 4 5 1 
13 4 8 2 
14 7 8 1 
15 6 7 2 
16 23 24 1 
17 22 23 1 
18 22 27 2 
19 26 27 1 
20 25 26 1 
21 10 11 1 
22 10 20 2 
23 10 30 2 
24 21 29 2 
25 20 21 1 
26 16 17 1 
27 16 29 2 
28 16 19 2 
29 19 20 1 
30 14 15 1 
31 13 14 1 
32 1 2 1 
33 1 15 2 
34 2 3 1 
35 2 13 2 
ITEM: TIMESTEP
81800
ITEM: NUMBER OF ENTRIES
35
ITEM: BOX BOUNDS pp pp pp
-1.0000000000000000e+01 1.0000000000000000e+01
-1.0000000000000000e+01 1.0000000000000000e+01
-1.0000000000000000e+01 1.0000000000000000e+01
ITEM: ENTRIES index c_bondedatomid1 c_bondedatomid2 c_btype
1 18 28 2 
2 18 20 2 
3 11 12 1 
4 11 28 2 
5 28 29 1 
6 17 18 1 
7 29 30 1 
8 12 17 2 
9 12 21 2 
10 8 9 1 
11 5 6 1 
12 4 5 1 
13 4 8 2 
14 7 8 1 
15 6 7 2 
16 23 24 1 
17 22 23 1 
18 22 27 2 
19 26 27 1 
20 25 26 1 
21 10 11 1 
22 10 20 2 
23 10 30 2 
24 21 29 2 
25 20 21 1 
26 16 17 1 
27 16 29 2 
28 16 19 2 
29 19 20 1 
30 14 15 1 
31 13 14 1 
32 1 2 1 
33 1 15 2 
34 2 3 1 
35 2 13 2 
ITEM: TIMESTEP
81900
ITEM: NUMBER OF ENTRIES
35
ITEM: BOX BOUNDS pp pp pp
-1.0000000000000000e+01 1.0000000000000000e+01
-1.0000000000000000e+01 1.0000000000000000e+01
-1.0000000000000000e+01 1.0000000000000000e+01
ITEM: ENTRIES index c_bondedatomid1 c_bondedatomid2 c_btype
1 18 28 2 
2 18 20 2 
3 11 12 1 
4 11 28 2 
5 28 29 1 
6 17 18 1 
7 29 30 1 
8 12 17 2 
9 12 21 2 
10 8 9 1 
11 5 6 1 
12 4 5 1 
13 4 8 2 
14 7 8 1 
15 6 7 2 
16 23 24 1 
17 22 23 1 
18 22 27 2 
19 26 27 1 
20 25 26 1 
21 10 11 1 
22 10 20 2 
23 10 30 2 
24 21 29 2 
25 20 21 1 
26 16 17 1 
27 16 29 2 
28 16 19 2 
29 19 20 1 
30 14 15 1 
31 13 14 1 
32 1 2 1 
33 1 15 2 
34 2 3 1 
35 2 13 2 
ITEM: TIMESTEP
82000
ITEM: NUMBER OF ENTRIES
35
ITEM: BOX BOUNDS pp pp pp
-1.0000000000000000e+01 1.0000000000000000e+01
-1.0000000000000000e+01 1.0000000000000000e+01
-1.0000000000000000e+01 1.0000000000000000e+01
ITEM: ENTRIES index c_bondedatomid1 c_bondedatomid2 c_btype
1 18 28 2 
2 18 20 2 
3 11 12 1 
4 11 28 2 
5 28 29 1 
6 17 18 1 
7 29 30 1 
8 12 17 2 
9 12 21 2 
10 8 9 1 
11 5 6 1 
12 4 5 1 
13 4 8 2 
14 7 8 1 
15 6 7 2 
16 23 24 1 
17 22 23 1 
18 22 27 2 
19 26 27 1 
20 25 26 1 
21 10 11 1 
22 10 20 2 
23 10 30 2 
24 21 29 2 
25 20 21 1 
26 16 17 1 
27 16 29 2 
28 16 19 2 
29 19 20 1 
30 14 15 1 
31 13 14 1 
32 1 2 1 
33 1 15 2 
34 2 3 1 
35 2 13 2 
ITEM: TIMESTEP
82100
ITEM: NUMBER OF ENTRIES
35
ITEM: BOX BOUNDS pp pp pp
-1.0000000000000000e+01 1.0000000000000000e+01
-1.0000000000000000e+01 1.0000000000000000e+01
-1.0000000000000000e+01 1.0000000000000000e+01
ITEM: ENTRIES index c_bondedatomid1 c_bondedatomid2 c_btype
1 28 29 1 
2 18 28 2 
3 18 20 2 
4 22 23 1 
5 22 27 2 
6 8 9 1 
7 5 6 1 
8 4 5 1 
9 4 8 2 
10 7 8 1 
11 6 7 2 
12 23 24 1 
13 25 26 1 
14 26 27 1 
15 11 12 1 
16 11 28 2 
17 17 18 1 
18 29 30 1 
19 12 17 2 
20 12 21 2 
21 10 11 1 
22 10 20 2 
23 10 30 2 
24 21 29 2 
25 20 21 1 
26 16 17 1 
27 16 29 2 
28 16 19 2 
29 19 20 1 
30 1 2 1 
31 1 15 2 
32 14 15 1 
33 13 14 1 
34 2 3 1 
35 2 13 2 
ITEM: TIMESTEP
82200
ITEM: NUMBER OF ENTRIES
35
ITEM: BOX BOUNDS pp pp pp
-1.0000000000000000e+01 1.0000000000000000e+01
-1.0000000000000000e+01 1.0000000000000000e+01
-1.0000000000000000e+01 1.0000000000000000e+01
ITEM: ENTRIES index c_bondedatomid1 c_bondedatomid2 c_btype
1 28 29 1 
2 18 28 2 
3 18 20 2 
4 22 23 1 
5 22 27 2 
6 8 9 1 
7 5 6 1 
8 4 5 1 
9 4 8 2 
10 7 8 1 
11 6 7 2 
12 23 24 1 
13 25 26 1 
14 26 27 1 
15 11 12 1 
16 11 28 2 
17 17 18 1 
18 29 30 1 
19 12 17 2 
20 12 21 2 
21 10 11 1 
22 10 20 2 
23 10 30 2 
24 21 29 2 
25 20 21 1 
26 16 17 1 
27 16 29 2 
28 16 19 2 
29 19 20 1 
30 1 2 1 
31 1 15 2 
32 14 15 1 
33 13 14 1 
34 2 3 1 
35 2 13 2 
ITEM: TIMESTEP
82300
ITEM: NUMBER OF ENTRIES
35
ITEM: BOX BOUNDS pp pp pp
-1.0000000000000000e+01 1.0000000000000000e+01
-1.0000000000000000e+01 1.0000000000000000e+01
-1.0000000000000000e+01 1.0000000000000000e+01
ITEM: ENTRIES index c_bondedatomid1 c_bondedatomid2 c_btype
1 28 29 1 
2 18 28 2 
3 18 20 2 
4 22 23 1 
5 22 27 2 
6 8 9 1 
7 5 6 1 
8 4 5 1 
9 4 8 2 
10 7 8 1 
11 6 7 2 
12 23 24 1 
13 25 26 1 
14 26 27 1 
15 11 12 1 
16 11 28 2 
17 17 18 1 
18 29 30 1 
19 12 17 2 
20 12 21 2 
21 10 11 1 
22 10 20 2 
23 10 30 2 
24 21 29 2 
25 20 21 1 
26 16 17 1 
27 16 29 2 
28 16 19 2 
29 19 20 1 
30 1 2 1 
31 1 15 2 
32 14 15 1 
33 13 14 1 
34 2 3 1 
35 2 13 2 
ITEM: TIMESTEP
82400
ITEM: NUMBER OF ENTRIES
35
ITEM: BOX BOUNDS pp pp pp
-1.0000000000000000e+01 1.0000000000000000e+01
-1.0000000000000000e+01 1.0000000000000000e+01
-1.0000000000000000e+01 1.0000000000000000e+01
ITEM: ENTRIES index c_bondedatomid1 c_bondedatomid2 c_btype
1 28 29 1 
2 18 28 2 
3 18 20 2 
4 22 23 1 
5 22 27 2 
6 8 9 1 
7 5 6 1 
8 4 5 1 
9 4 8 2 
10 7 8 1 
11 6 7 2 
12 23 24 1 
13 25 26 1 
14 26 27 1 
15 11 12 1 
16 11 28 2 
17 17 18 1 
18 29 30 1 
19 12 17 2 
20 12 21 2 
21 10 11 1 
22 10 20 2 
23 10 30 2 
24 21 29 2 
25 20 21 1 
26 16 17 1 
27 16 29 2 
28 16 19 2 
29 19 20 1 
30 1 2 1 
31 1 15 2 
32 14 15 1 
33 13 14 1 
34 2 3 1 
35 2 13 2 
ITEM: TIMESTEP
82500
ITEM: NUMBER OF ENTRIES
35
ITEM: BOX BOUNDS pp pp pp
-1.0000000000000000e+01 1.0000000000000000e+01
-1.0000000000000000e+01 1.0000000000000000e+01
-1.0000000000000000e+01 1.0000000000000000e+01
ITEM: ENTRIES index c_bondedatomid1 c_bondedatomid2 c_btype
1 28 29 1 
2 18 28 2 
3 18 20 2 
4 22 23 1 
5 22 27 2 
6 8 9 1 
7 5 6 1 
8 4 5 1 
9 4 8 2 
10 7 8 1 
11 6 7 2 
12 23 24 1 
13 25 26 1 
14 26 27 1 
15 11 12 1 
16 11 28 2 
17 17 18 1 
18 29 30 1 
19 12 17 2 
20 12 21 2 
21 10 11 1 
22 10 20 2 
23 10 30 2 
24 21 29 2 
25 20 21 1 
26 16 17 1 
27 16 29 2 
28 16 19 2 
29 19 20 1 
30 1 2 1 
31 1 15 2 
32 14 15 1 
33 13 14 1 
34 2 3 1 
35 2 13 2 
ITEM: TIMESTEP
82600
ITEM: NUMBER OF ENTRIES
35
ITEM: BOX BOUNDS pp pp pp
-1.0000000000000000e+01 1.0000000000000000e+01
-1.0000000000000000e+01 1.0000000000000000e+01
-1.0000000000000000e+01 1.0000000000000000e+01
ITEM: ENTRIES index c_bondedatomid1 c_bondedatomid2 c_btype
1 28 29 1 
2 18 28 2 
3 18 20 2 
4 22 23 1 
5 22 27 2 
6 8 9 1 
7 5 6 1 
8 4 5 1 
9 4 8 2 
10 7 8 1 
11 6 7 2 
12 23 24 1 
13 25 26 1 
14 26 27 1 
15 11 12 1 
16 11 28 2 
17 17 18 1 
18 29 30 1 
19 12 17 2 
20 12 21 2 
21 10 11 1 
22 10 20 2 
23 10 30 2 
24 21 29 2 
25 20 21 1 
26 16 17 1 
27 16 29 2 
28 16 19 2 
29 19 20 1 
30 1 2 1 
31 1 15 2 
32 14 15 1 
33 13 14 1 
34 2 3 1 
35 2 13 2 
ITEM: TIMESTEP
82700
ITEM: NUMBER OF ENTRIES
35
ITEM: BOX BOUNDS pp pp pp
-1.0000000000000000e+01 1.0000000000000000e+01
-1.0000000000000000e+01 1.0000000000000000e+01
-1.0000000000000000e+01 1.0000000000000000e+01
ITEM: ENTRIES index c_bondedatomid1 c_bondedatomid2 c_btype
1 28 29 1 
2 18 28 2 
3 18 20 2 
4 22 23 1 
5 22 27 2 
6 8 9 1 
7 5 6 1 
8 4 5 1 
9 4 8 2 
10 7 8 1 
11 6 7 2 
12 23 24 1 
13 25 26 1 
14 26 27 1 
15 11 12 1 
16 11 28 2 
17 17 18 1 
18 29 30 1 
19 12 17 2 
20 12 21 2 
21 10 11 1 
22 10 20 2 
23 10 30 2 
24 21 29 2 
25 20 21 1 
26 16 17 1 
27 16 29 2 
28 16 19 2 
29 19 20 1 
30 1 2 1 
31 1 15 2 
32 14 15 1 
33 13 14 1 
34 2 3 1 
35 2 13 2 
ITEM: TIMESTEP
82800
ITEM: NUMBER OF ENTRIES
36
ITEM: BOX BOUNDS pp pp pp
-1.0000000000000000e+01 1.0000000000000000e+01
-1.0000000000000000e+01 1.0000000000000000e+01
-1.0000000000000000e+01 1.0000000000000000e+01
ITEM: ENTRIES index c_bondedatomid1 c_bondedatomid2 c_btype
1 28 29 1 
2 18 28 2 
3 18 20 2 
4 24 26 2 
5 22 23 1 
6 22 27 2 
7 8 9 1 
8 5 6 1 
9 4 5 1 
10 4 8 2 
11 7 8 1 
12 6 7 2 
13 23 24 1 
14 25 26 1 
15 26 27 1 
16 11 12 1 
17 11 28 2 
18 17 18 1 
19 29 30 1 
20 12 17 2 
21 12 21 2 
22 10 11 1 
23 10 20 2 
24 10 30 2 
25 21 29 2 
26 20 21 1 
27 16 17 1 
28 16 29 2 
29 16 19 2 
30 19 20 1 
31 1 2 1 
32 1 15 2 
33 14 15 1 
34 13 14 1 
35 2 3 1 
36 2 13 2 
ITEM: TIMESTEP
82900
ITEM: NUMBER OF ENTRIES
36
ITEM: BOX BOUNDS pp pp pp
-1.0000000000000000e+01 1.0000000000000000e+01
-1.0000000000000000e+01 1.0000000000000000e+01
-1.0000000000000000e+01 1.0000000000000000e+01
ITEM: ENTRIES index c_bondedatomid1 c_bondedatomid2 c_btype
1 28 29 1 
2 18 28 2 
3 18 20 2 
4 24 26 2 
5 22 23 1 
6 22 27 2 
7 8 9 1 
8 5 6 1 
9 4 5 1 
10 4 8 2 
11 7 8 1 
12 6 7 2 
13 23 24 1 
14 25 26 1 
15 26 27 1 
16 11 12 1 
17 11 28 2 
18 17 18 1 
19 29 30 1 
20 12 17 2 
21 12 21 2 
22 10 11 1 
23 10 20 2 
24 10 30 2 
25 21 29 2 
26 20 21 1 
27 16 17 1 
28 16 29 2 
29 16 19 2 
30 19 20 1 
31 1 2 1 
32 1 15 2 
33 14 15 1 
34 13 14 1 
35 2 3 1 
36 2 13 2 
ITEM: TIMESTEP
83000
ITEM: NUMBER OF ENTRIES
36
ITEM: BOX BOUNDS pp pp pp
-1.0000000000000000e+01 1.0000000000000000e+01
-1.0000000000000000e+01 1.0000000000000000e+01
-1.0000000000000000e+01 1.0000000000000000e+01
ITEM: ENTRIES index c_bondedatomid1 c_bondedatomid2 c_btype
1 28 29 1 
2 18 28 2 
3 18 20 2 
4 24 26 2 
5 22 23 1 
6 22 27 2 
7 8 9 1 
8 5 6 1 
9 4 5 1 
10 4 8 2 
11 7 8 1 
12 6 7 2 
13 23 24 1 
14 25 26 1 
15 26 27 1 
16 11 12 1 
17 11 28 2 
18 17 18 1 
19 29 30 1 
20 12 17 2 
21 12 21 2 
22 10 11 1 
23 10 20 2 
24 10 30 2 
25 21 29 2 
26 20 21 1 
27 16 17 1 
28 16 29 2 
29 16 19 2 
30 19 20 1 
31 1 2 1 
32 1 15 2 
33 14 15 1 
34 13 14 1 
35 2 3 1 
36 2 13 2 
ITEM: TIMESTEP
83100
ITEM: NUMBER OF ENTRIES
36
ITEM: BOX BOUNDS pp pp pp
-1.0000000000000000e+01 1.0000000000000000e+01
-1.0000000000000000e+01 1.0000000000000000e+01
-1.0000000000000000e+01 1.0000000000000000e+01
ITEM: ENTRIES index c_bondedatomid1 c_bondedatomid2 c_btype
1 18 28 2 
2 18 20 2 
3 16 17 1 
4 16 29 2 
5 16 19 2 
6 24 26 2 
7 26 27 1 
8 22 23 1 
9 22 27 2 
10 23 24 1 
11 8 9 1 
12 5 6 1 
13 4 5 1 
14 4 8 2 
15 7 8 1 
16 6 7 2 
17 25 26 1 
18 28 29 1 
19 21 29 2 
20 11 12 1 
21 11 28 2 
22 17 18 1 
23 29 30 1 
24 12 17 2 
25 12 21 2 
26 10 11 1 
27 10 20 2 
28 10 30 2 
29 20 21 1 
30 19 20 1 
31 1 2 1 
32 1 15 2 
33 13 14 1 
34 2 3 1 
35 2 13 2 
36 14 15 1 
ITEM: TIMESTEP
83200
ITEM: NUMBER OF ENTRIES
36
ITEM: BOX BOUNDS pp pp pp
-1.0000000000000000e+01 1.0000000000000000e+01
-1.0000000000000000e+01 1.0000000000000000e+01
-1.0000000000000000e+01 1.0000000000000000e+01
ITEM: ENTRIES index c_bondedatomid1 c_bondedatomid2 c_btype
1 18 28 2 
2 18 20 2 
3 16 17 1 
4 16 29 2 
5 16 19 2 
6 24 26 2 
7 26 27 1 
8 22 23 1 
9 22 27 2 
10 23 24 1 
11 8 9 1 
12 5 6 1 
13 4 5 1 
14 4 8 2 
15 7 8 1 
16 6 7 2 
17 25 26 1 
18 28 29 1 
19 21 29 2 
20 11 12 1 
21 11 28 2 
22 17 18 1 
23 29 30 1 
24 12 17 2 
25 12 21 2 
26 10 11 1 
27 10 20 2 
28 10 30 2 
29 20 21 1 
30 19 20 1 
31 1 2 1 
32 1 15 2 
33 13 14 1 
34 2 3 1 
35 2 13 2 
36 14 15 1 
ITEM: TIMESTEP
83300
ITEM: NUMBER OF ENTRIES
36
ITEM: BOX BOUNDS pp pp pp
-1.0000000000000000e+01 1.0000000000000000e+01
-1.0000000000000000e+01 1.0000000000000000e+01
-1.0000000000000000e+01 1.0000000000000000e+01
ITEM: ENTRIES index c_bondedatomid1 c_bondedatomid2 c_btype
1 18 28 2 
2 18 20 2 
3 16 17 1 
4 16 29 2 
5 16 19 2 
6 24 26 2 
7 26 27 1 
8 22 23 1 
9 22 27 2 
10 23 24 1 
11 8 9 1 
12 5 6 1 
13 4 5 1 
14 4 8 2 
15 7 8 1 
16 6 7 2 
17 25 26 1 
18 28 29 1 
19 21 29 2 
20 11 12 1 
21 11 28 2 
22 17 18 1 
23 29 30 1 
24 12 17 2 
25 12 21 2 
26 10 11 1 
27 10 20 2 
28 10 30 2 
29 20 21 1 
30 19 20 1 
31 1 2 1 
32 1 15 2 
33 13 14 1 
34 2 3 1 
35 2 13 2 
36 14 15 1 
ITEM: TIMESTEP
83400
ITEM: NUMBER OF ENTRIES
36
ITEM: BOX BOUNDS pp pp pp
-1.0000000000000000e+01 1.0000000000000000e+01
-1.0000000000000000e+01 1.0000000000000000e+01
-1.0000000000000000e+01 1.0000000000000000e+01
ITEM: ENTRIES index c_bondedatomid1 c_bondedatomid2 c_btype
1 18 28 2 
2 18 20 2 
3 16 17 1 
4 16 29 2 
5 16 19 2 
6 24 26 2 
7 26 27 1 
8 22 23 1 
9 22 27 2 
10 23 24 1 
11 8 9 1 
12 5 6 1 
13 4 5 1 
14 4 8 2 
15 7 8 1 
16 6 7 2 
17 25 26 1 
18 28 29 1 
19 21 29 2 
20 11 12 1 
21 11 28 2 
22 17 18 1 
23 29 30 1 
24 12 17 2 
25 12 21 2 
26 10 11 1 
27 10 20 2 
28 10 30 2 
29 20 21 1 
30 19 20 1 
31 1 2 1 
32 1 15 2 
33 13 14 1 
34 2 3 1 
35 2 13 2 
36 14 15 1 
ITEM: TIMESTEP
83500
ITEM: NUMBER OF ENTRIES
36
ITEM: BOX BOUNDS pp pp pp
-1.0000000000000000e+01 1.0000000000000000e+01
-1.0000000000000000e+01 1.0000000000000000e+01
-1.0000000000000000e+01 1.0000000000000000e+01
ITEM: ENTRIES index c_bondedatomid1 c_bondedatomid2 c_btype
1 18 28 2 
2 18 20 2 
3 16 17 1 
4 16 29 2 
5 16 19 2 
6 24 26 2 
7 26 27 1 
8 22 23 1 
9 22 27 2 
10 23 24 1 
11 8 9 1 
12 5 6 1 
13 4 5 1 
14 4 8 2 
15 7 8 1 
16 6 7 2 
17 25 26 1 
18 28 29 1 
19 21 29 2 
20 11 12 1 
21 11 28 2 
22 17 18 1 
23 29 30 1 
24 12 17 2 
25 12 21 2 
26 10 11 1 
27 10 20 2 
28 10 30 2 
29 20 21 1 
30 19 20 1 
31 1 2 1 
32 1 15 2 
33 13 14 1 
34 2 3 1 
35 2 13 2 
36 14 15 1 
ITEM: TIMESTEP
83600
ITEM: NUMBER OF ENTRIES
36
ITEM: BOX BOUNDS pp pp pp
-1.0000000000000000e+01 1.0000000000000000e+01
-1.0000000000000000e+01 1.0000000000000000e+01
-1.0000000000000000e+01 1.0000000000000000e+01
ITEM: ENTRIES index c_bondedatomid1 c_bondedatomid2 c_btype
1 18 28 2 
2 18 20 2 
3 16 17 1 
4 16 29 2 
5 16 19 2 
6 24 26 2 
7 26 27 1 
8 22 23 1 
9 22 27 2 
10 23 24 1 
11 8 9 1 
12 5 6 1 
13 4 5 1 
14 4 8 2 
15 7 8 1 
16 6 7 2 
17 25 26 1 
18 28 29 1 
19 21 29 2 
20 11 12 1 
21 11 28 2 
22 17 18 1 
23 29 30 1 
24 12 17 2 
25 12 21 2 
26 10 11 1 
27 10 20 2 
28 10 30 2 
29 20 21 1 
30 19 20 1 
31 1 2 1 
32 1 15 2 
33 13 14 1 
34 2 3 1 
35 2 13 2 
36 14 15 1 
ITEM: TIMESTEP
83700
ITEM: NUMBER OF ENTRIES
36
ITEM: BOX BOUNDS pp pp pp
-1.0000000000000000e+01 1.0000000000000000e+01
-1.0000000000000000e+01 1.0000000000000000e+01
-1.0000000000000000e+01 1.0000000000000000e+01
ITEM: ENTRIES index c_bondedatomid1 c_bondedatomid2 c_btype
1 18 28 2 
2 18 20 2 
3 16 17 1 
4 16 29 2 
5 16 19 2 
6 24 26 2 
7 26 27 1 
8 22 23 1 
9 22 27 2 
10 23 24 1 
11 8 9 1 
12 5 6 1 
13 4 5 1 
14 4 8 2 
15 7 8 1 
16 6 7 2 
17 25 26 1 
18 28 29 1 
19 21 29 2 
20 11 12 1 
21 11 28 2 
22 17 18 1 
23 29 30 1 
24 12 17 2 
25 12 21 2 
26 10 11 1 
27 10 20 2 
28 10 30 2 
29 20 21 1 
30 19 20 1 
31 1 2 1 
32 1 15 2 
33 13 14 1 
34 2 3 1 
35 2 13 2 
36 14 15 1 
ITEM: TIMESTEP
83800
ITEM: NUMBER OF ENTRIES
36
ITEM: BOX BOUNDS pp pp pp
-1.0000000000000000e+01 1.0000000000000000e+01
-1.0000000000000000e+01 1.0000000000000000e+01
-1.0000000000000000e+01 1.0000000000000000e+01
ITEM: ENTRIES index c_bondedatomid1 c_bondedatomid2 c_btype
1 18 28 2 
2 18 20 2 
3 16 17 1 
4 16 29 2 
5 16 19 2 
6 24 26 2 
7 26 27 1 
8 22 23 1 
9 22 27 2 
10 23 24 1 
11 8 9 1 
12 5 6 1 
13 4 5 1 
14 4 8 2 
15 7 8 1 
16 6 7 2 
17 25 26 1 
18 28 29 1 
19 21 29 2 
20 11 12 1 
21 11 28 2 
22 17 18 1 
23 29 30 1 
24 12 17 2 
25 12 21 2 
26 10 11 1 
27 10 20 2 
28 10 30 2 
29 20 21 1 
30 19 20 1 
31 1 2 1 
32 1 15 2 
33 13 14 1 
34 2 3 1 
35 2 13 2 
36 14 15 1 
ITEM: TIMESTEP
83900
ITEM: NUMBER OF ENTRIES
36
ITEM: BOX BOUNDS pp pp pp
-1.0000000000000000e+01 1.0000000000000000e+01
-1.0000000000000000e+01 1.0000000000000000e+01
-1.0000000000000000e+01 1.0000000000000000e+01
ITEM: ENTRIES index c_bondedatomid1 c_bondedatomid2 c_btype
1 18 28 2 
2 18 20 2 
3 16 17 1 
4 16 29 2 
5 16 19 2 
6 24 26 2 
7 26 27 1 
8 22 23 1 
9 22 27 2 
10 23 24 1 
11 8 9 1 
12 5 6 1 
13 4 5 1 
14 4 8 2 
15 7 8 1 
16 6 7 2 
17 25 26 1 
18 28 29 1 
19 21 29 2 
20 11 12 1 
21 11 28 2 
22 17 18 1 
23 29 30 1 
24 12 17 2 
25 12 21 2 
26 10 11 1 
27 10 20 2 
28 10 30 2 
29 20 21 1 
30 19 20 1 
31 1 2 1 
32 1 15 2 
33 13 14 1 
34 2 3 1 
35 2 13 2 
36 14 15 1 
ITEM: TIMESTEP
84000
ITEM: NUMBER OF ENTRIES
36
ITEM: BOX BOUNDS pp pp pp
-1.0000000000000000e+01 1.0000000000000000e+01
-1.0000000000000000e+01 1.0000000000000000e+01
-1.0000000000000000e+01 1.0000000000000000e+01
ITEM: ENTRIES index c_bondedatomid1 c_bondedatomid2 c_btype
1 18 28 2 
2 18 20 2 
3 16 17 1 
4 16 29 2 
5 16 19 2 
6 24 26 2 
7 26 27 1 
8 22 23 1 
9 22 27 2 
10 23 24 1 
11 8 9 1 
12 5 6 1 
13 4 5 1 
14 4 8 2 
15 7 8 1 
16 6 7 2 
17 25 26 1 
18 28 29 1 
19 21 29 2 
20 11 12 1 
21 11 28 2 
22 17 18 1 
23 29 30 1 
24 12 17 2 
25 12 21 2 
26 10 11 1 
27 10 20 2 
28 10 30 2 
29 20 21 1 
30 19 20 1 
31 1 2 1 
32 1 15 2 
33 13 14 1 
34 2 3 1 
35 2 13 2 
36 14 15 1 
ITEM: TIMESTEP
84100
ITEM: NUMBER OF ENTRIES
36
ITEM: BOX BOUNDS pp pp pp
-1.0000000000000000e+01 1.0000000000000000e+01
-1.0000000000000000e+01 1.0000000000000000e+01
-1.0000000000000000e+01 1.0000000000000000e+01
ITEM: ENTRIES index c_bondedatomid1 c_bondedatomid2 c_btype
1 19 20 1 
2 1 2 1 
3 1 15 2 
4 25 26 1 
5 24 26 2 
6 26 27 1 
7 22 23 1 
8 22 27 2 
9 23 24 1 
10 5 6 1 
11 4 5 1 
12 4 8 2 
13 7 8 1 
14 6 7 2 
15 8 9 1 
16 16 17 1 
17 16 29 2 
18 16 19 2 
19 21 29 2 
20 12 17 2 
21 12 21 2 
22 20 21 1 
23 18 28 2 
24 18 20 2 
25 28 29 1 
26 11 12 1 
27 11 28 2 
28 17 18 1 
29 29 30 1 
30 10 11 1 
31 10 20 2 
32 10 30 2 
33 13 14 1 
34 2 3 1 
35 2 13 2 
36 14 15 1 
ITEM: TIMESTEP
84200
ITEM: NUMBER OF ENTRIES
36
ITEM: BOX BOUNDS pp pp pp
-1.0000000000000000e+01 1.0000000000000000e+01
-1.0000000000000000e+01 1.0000000000000000e+01
-1.0000000000000000e+01 1.0000000000000000e+01
ITEM: ENTRIES index c_bondedatomid1 c_bondedatomid2 c_btype
1 19 20 1 
2 1 2 1 
3 1 15 2 
4 25 26 1 
5 24 26 2 
6 26 27 1 
7 22 23 1 
8 22 27 2 
9 23 24 1 
10 5 6 1 
11 4 5 1 
12 4 8 2 
13 7 8 1 
14 6 7 2 
15 8 9 1 
16 16 17 1 
17 16 29 2 
18 16 19 2 
19 21 29 2 
20 12 17 2 
21 12 21 2 
22 20 21 1 
23 18 28 2 
24 18 20 2 
25 28 29 1 
26 11 12 1 
27 11 28 2 
28 17 18 1 
29 29 30 1 
30 10 11 1 
31 10 20 2 
32 10 30 2 
33 13 14 1 
34 2 3 1 
35 2 13 2 
36 14 15 1 
ITEM: TIMESTEP
84300
ITEM: NUMBER OF ENTRIES
36
ITEM: BOX BOUNDS pp pp pp
-1.0000000000000000e+01 1.0000000000000000e+01
-1.0000000000000000e+01 1.0000000000000000e+01
-1.0000000000000000e+01 1.0000000000000000e+01
ITEM: ENTRIES index c_bondedatomid1 c_bondedatomid2 c_btype
1 19 20 1 
2 1 2 1 
3 1 15 2 
4 25 26 1 
5 24 26 2 
6 26 27 1 
7 22 23 1 
8 22 27 2 
9 23 24 1 
10 5 6 1 
11 4 5 1 
12 4 8 2 
13 7 8 1 
14 6 7 2 
15 8 9 1 
16 16 17 1 
17 16 29 2 
18 16 19 2 
19 21 29 2 
20 12 17 2 
21 12 21 2 
22 20 21 1 
23 18 28 2 
24 18 20 2 
25 28 29 1 
26 11 12 1 
27 11 28 2 
28 17 18 1 
29 29 30 1 
30 10 11 1 
31 10 20 2 
32 10 30 2 
33 13 14 1 
34 2 3 1 
35 2 13 2 
36 14 15 1 
ITEM: TIMESTEP
84400
ITEM: NUMBER OF ENTRIES
36
ITEM: BOX BOUNDS pp pp pp
-1.0000000000000000e+01 1.0000000000000000e+01
-1.0000000000000000e+01 1.0000000000000000e+01
-1.0000000000000000e+01 1.0000000000000000e+01
ITEM: ENTRIES index c_bondedatomid1 c_bondedatomid2 c_btype
1 19 20 1 
2 1 2 1 
3 1 15 2 
4 25 26 1 
5 24 26 2 
6 26 27 1 
7 22 23 1 
8 22 27 2 
9 23 24 1 
10 5 6 1 
11 4 5 1 
12 4 8 2 
13 7 8 1 
14 6 7 2 
15 8 9 1 
16 16 17 1 
17 16 29 2 
18 16 19 2 
19 21 29 2 
20 12 17 2 
21 12 21 2 
22 20 21 1 
23 18 28 2 
24 18 20 2 
25 28 29 1 
26 11 12 1 
27 11 28 2 
28 17 18 1 
29 29 30 1 
30 10 11 1 
31 10 20 2 
32 10 30 2 
33 13 14 1 
34 2 3 1 
35 2 13 2 
36 14 15 1 
ITEM: TIMESTEP
84500
ITEM: NUMBER OF ENTRIES
36
ITEM: BOX BOUNDS pp pp pp
-1.0000000000000000e+01 1.0000000000000000e+01
-1.0000000000000000e+01 1.0000000000000000e+01
-1.0000000000000000e+01 1.0000000000000000e+01
ITEM: ENTRIES index c_bondedatomid1 c_bondedatomid2 c_btype
1 19 20 1 
2 1 2 1 
3 1 15 2 
4 25 26 1 
5 24 26 2 
6 26 27 1 
7 22 23 1 
8 22 27 2 
9 23 24 1 
10 5 6 1 
11 4 5 1 
12 4 8 2 
13 7 8 1 
14 6 7 2 
15 8 9 1 
16 16 17 1 
17 16 29 2 
18 16 19 2 
19 21 29 2 
20 12 17 2 
21 12 21 2 
22 20 21 1 
23 18 28 2 
24 18 20 2 
25 28 29 1 
26 11 12 1 
27 11 28 2 
28 17 18 1 
29 29 30 1 
30 10 11 1 
31 10 20 2 
32 10 30 2 
33 13 14 1 
34 2 3 1 
35 2 13 2 
36 14 15 1 
ITEM: TIMESTEP
84600
ITEM: NUMBER OF ENTRIES
36
ITEM: BOX BOUNDS pp pp pp
-1.0000000000000000e+01 1.0000000000000000e+01
-1.0000000000000000e+01 1.0000000000000000e+01
-1.0000000000000000e+01 1.0000000000000000e+01
ITEM: ENTRIES index c_bondedatomid1 c_bondedatomid2 c_btype
1 19 20 1 
2 1 2 1 
3 1 15 2 
4 25 26 1 
5 24 26 2 
6 26 27 1 
7 22 23 1 
8 22 27 2 
9 23 24 1 
10 5 6 1 
11 4 5 1 
12 4 8 2 
13 7 8 1 
14 6 7 2 
15 8 9 1 
16 16 17 1 
17 16 29 2 
18 16 19 2 
19 21 29 2 
20 12 17 2 
21 12 21 2 
22 20 21 1 
23 18 28 2 
24 18 20 2 
25 28 29 1 
26 11 12 1 
27 11 28 2 
28 17 18 1 
29 29 30 1 
30 10 11 1 
31 10 20 2 
32 10 30 2 
33 13 14 1 
34 2 3 1 
35 2 13 2 
36 14 15 1 
ITEM: TIMESTEP
84700
ITEM: NUMBER OF ENTRIES
36
ITEM: BOX BOUNDS pp pp pp
-1.0000000000000000e+01 1.0000000000000000e+01
-1.0000000000000000e+01 1.0000000000000000e+01
-1.0000000000000000e+01 1.0000000000000000e+01
ITEM: ENTRIES index c_bondedatomid1 c_bondedatomid2 c_btype
1 19 20 1 
2 1 2 1 
3 1 15 2 
4 25 26 1 
5 24 26 2 
6 26 27 1 
7 22 23 1 
8 22 27 2 
9 23 24 1 
10 5 6 1 
11 4 5 1 
12 4 8 2 
13 7 8 1 
14 6 7 2 
15 8 9 1 
16 16 17 1 
17 16 29 2 
18 16 19 2 
19 21 29 2 
20 12 17 2 
21 12 21 2 
22 20 21 1 
23 18 28 2 
24 18 20 2 
25 28 29 1 
26 11 12 1 
27 11 28 2 
28 17 18 1 
29 29 30 1 
30 10 11 1 
31 10 20 2 
32 10 30 2 
33 13 14 1 
34 2 3 1 
35 2 13 2 
36 14 15 1 
ITEM: TIMESTEP
84800
ITEM: NUMBER OF ENTRIES
36
ITEM: BOX BOUNDS pp pp pp
-1.0000000000000000e+01 1.0000000000000000e+01
-1.0000000000000000e+01 1.0000000000000000e+01
-1.0000000000000000e+01 1.0000000000000000e+01
ITEM: ENTRIES index c_bondedatomid1 c_bondedatomid2 c_btype
1 19 20 1 
2 1 2 1 
3 1 15 2 
4 25 26 1 
5 24 26 2 
6 26 27 1 
7 22 23 1 
8 22 27 2 
9 23 24 1 
10 5 6 1 
11 4 5 1 
12 4 8 2 
13 7 8 1 
14 6 7 2 
15 8 9 1 
16 16 17 1 
17 16 29 2 
18 16 19 2 
19 21 29 2 
20 12 17 2 
21 12 21 2 
22 20 21 1 
23 18 28 2 
24 18 20 2 
25 28 29 1 
26 11 12 1 
27 11 28 2 
28 17 18 1 
29 29 30 1 
30 10 11 1 
31 10 20 2 
32 10 30 2 
33 13 14 1 
34 2 3 1 
35 2 13 2 
36 14 15 1 
ITEM: TIMESTEP
84900
ITEM: NUMBER OF ENTRIES
36
ITEM: BOX BOUNDS pp pp pp
-1.0000000000000000e+01 1.0000000000000000e+01
-1.0000000000000000e+01 1.0000000000000000e+01
-1.0000000000000000e+01 1.0000000000000000e+01
ITEM: ENTRIES index c_bondedatomid1 c_bondedatomid2 c_btype
1 19 20 1 
2 1 2 1 
3 1 15 2 
4 25 26 1 
5 24 26 2 
6 26 27 1 
7 22 23 1 
8 22 27 2 
9 23 24 1 
10 5 6 1 
11 4 5 1 
12 4 8 2 
13 7 8 1 
14 6 7 2 
15 8 9 1 
16 16 17 1 
17 16 29 2 
18 16 19 2 
19 21 29 2 
20 12 17 2 
21 12 21 2 
22 20 21 1 
23 18 28 2 
24 18 20 2 
25 28 29 1 
26 11 12 1 
27 11 28 2 
28 17 18 1 
29 29 30 1 
30 10 11 1 
31 10 20 2 
32 10 30 2 
33 13 14 1 
34 2 3 1 
35 2 13 2 
36 14 15 1 
ITEM: TIMESTEP
85000
ITEM: NUMBER OF ENTRIES
36
ITEM: BOX BOUNDS pp pp pp
-1.0000000000000000e+01 1.0000000000000000e+01
-1.0000000000000000e+01 1.0000000000000000e+01
-1.0000000000000000e+01 1.0000000000000000e+01
ITEM: ENTRIES index c_bondedatomid1 c_bondedatomid2 c_btype
1 19 20 1 
2 1 2 1 
3 1 15 2 
4 25 26 1 
5 24 26 2 
6 26 27 1 
7 22 23 1 
8 22 27 2 
9 23 24 1 
10 5 6 1 
11 4 5 1 
12 4 8 2 
13 7 8 1 
14 6 7 2 
15 8 9 1 
16 16 17 1 
17 16 29 2 
18 16 19 2 
19 21 29 2 
20 12 17 2 
21 12 21 2 
22 20 21 1 
23 18 28 2 
24 18 20 2 
25 28 29 1 
26 11 12 1 
27 11 28 2 
28 17 18 1 
29 29 30 1 
30 10 11 1 
31 10 20 2 
32 10 30 2 
33 13 14 1 
34 2 3 1 
35 2 13 2 
36 14 15 1 
ITEM: TIMESTEP
85100
ITEM: NUMBER OF ENTRIES
36
ITEM: BOX BOUNDS pp pp pp
-1.0000000000000000e+01 1.0000000000000000e+01
-1.0000000000000000e+01 1.0000000000000000e+01
-1.0000000000000000e+01 1.0000000000000000e+01
ITEM: ENTRIES index c_bondedatomid1 c_bondedatomid2 c_btype
1 19 20 1 
2 20 21 1 
3 11 12 1 
4 11 28 2 
5 23 24 1 
6 22 23 1 
7 22 27 2 
8 25 26 1 
9 24 26 2 
10 26 27 1 
11 5 6 1 
12 4 5 1 
13 4 8 2 
14 6 7 2 
15 8 9 1 
16 7 8 1 
17 16 17 1 
18 16 29 2 
19 16 19 2 
20 12 17 2 
21 12 21 2 
22 17 18 1 
23 18 28 2 
24 18 20 2 
25 28 29 1 
26 29 30 1 
27 10 11 1 
28 10 20 2 
29 10 30 2 
30 13 14 1 
31 14 15 1 
32 21 29 2 
33 1 2 1 
34 1 15 2 
35 2 3 1 
36 2 13 2 
ITEM: TIMESTEP
85200
ITEM: NUMBER OF ENTRIES
36
ITEM: BOX BOUNDS pp pp pp
-1.0000000000000000e+01 1.0000000000000000e+01
-1.0000000000000000e+01 1.0000000000000000e+01
-1.0000000000000000e+01 1.0000000000000000e+01
ITEM: ENTRIES index c_bondedatomid1 c_bondedatomid2 c_btype
1 19 20 1 
2 20 21 1 
3 11 12 1 
4 11 28 2 
5 23 24 1 
6 22 23 1 
7 22 27 2 
8 25 26 1 
9 24 26 2 
10 26 27 1 
11 5 6 1 
12 4 5 1 
13 4 8 2 
14 6 7 2 
15 8 9 1 
16 7 8 1 
17 16 17 1 
18 16 29 2 
19 16 19 2 
20 12 17 2 
21 12 21 2 
22 17 18 1 
23 18 28 2 
24 18 20 2 
25 28 29 1 
26 29 30 1 
27 10 11 1 
28 10 20 2 
29 10 30 2 
30 13 14 1 
31 14 15 1 
32 21 29 2 
33 1 2 1 
34 1 15 2 
35 2 3 1 
36 2 13 2 
ITEM: TIMESTEP
85300
ITEM: NUMBER OF ENTRIES
36
ITEM: BOX BOUNDS pp pp pp
-1.0000000000000000e+01 1.0000000000000000e+01
-1.0000000000000000e+01 1.0000000000000000e+01
-1.0000000000000000e+01 1.0000000000000000e+01
ITEM: ENTRIES index c_bondedatomid1 c_bondedatomid2 c_btype
1 19 20 1 
2 20 21 1 
3 11 12 1 
4 11 28 2 
5 23 24 1 
6 22 23 1 
7 22 27 2 
8 25 26 1 
9 24 26 2 
10 26 27 1 
11 5 6 1 
12 4 5 1 
13 4 8 2 
14 6 7 2 
15 8 9 1 
16 7 8 1 
17 16 17 1 
18 16 29 2 
19 16 19 2 
20 12 17 2 
21 12 21 2 
22 17 18 1 
23 18 28 2 
24 18 20 2 
25 28 29 1 
26 29 30 1 
27 10 11 1 
28 10 20 2 
29 10 30 2 
30 13 14 1 
31 14 15 1 
32 21 29 2 
33 1 2 1 
34 1 15 2 
35 2 3 1 
36 2 13 2 
ITEM: TIMESTEP
85400
ITEM: NUMBER OF ENTRIES
36
ITEM: BOX BOUNDS pp pp pp
-1.0000000000000000e+01 1.0000000000000000e+01
-1.0000000000000000e+01 1.0000000000000000e+01
-1.0000000000000000e+01 1.0000000000000000e+01
ITEM: ENTRIES index c_bondedatomid1 c_bondedatomid2 c_btype
1 19 20 1 
2 20 21 1 
3 11 12 1 
4 11 28 2 
5 23 24 1 
6 22 23 1 
7 22 27 2 
8 25 26 1 
9 24 26 2 
10 26 27 1 
11 5 6 1 
12 4 5 1 
13 4 8 2 
14 6 7 2 
15 8 9 1 
16 7 8 1 
17 16 17 1 
18 16 29 2 
19 16 19 2 
20 12 17 2 
21 12 21 2 
22 17 18 1 
23 18 28 2 
24 18 20 2 
25 28 29 1 
26 29 30 1 
27 10 11 1 
28 10 20 2 
29 10 30 2 
30 13 14 1 
31 14 15 1 
32 21 29 2 
33 1 2 1 
34 1 15 2 
35 2 3 1 
36 2 13 2 
ITEM: TIMESTEP
85500
ITEM: NUMBER OF ENTRIES
36
ITEM: BOX BOUNDS pp pp pp
-1.0000000000000000e+01 1.0000000000000000e+01
-1.0000000000000000e+01 1.0000000000000000e+01
-1.0000000000000000e+01 1.0000000000000000e+01
ITEM: ENTRIES index c_bondedatomid1 c_bondedatomid2 c_btype
1 19 20 1 
2 20 21 1 
3 11 12 1 
4 11 28 2 
5 23 24 1 
6 22 23 1 
7 22 27 2 
8 25 26 1 
9 24 26 2 
10 26 27 1 
11 5 6 1 
12 4 5 1 
13 4 8 2 
14 6 7 2 
15 8 9 1 
16 7 8 1 
17 16 17 1 
18 16 29 2 
19 16 19 2 
20 12 17 2 
21 12 21 2 
22 17 18 1 
23 18 28 2 
24 18 20 2 
25 28 29 1 
26 29 30 1 
27 10 11 1 
28 10 20 2 
29 10 30 2 
30 13 14 1 
31 14 15 1 
32 21 29 2 
33 1 2 1 
34 1 15 2 
35 2 3 1 
36 2 13 2 
ITEM: TIMESTEP
85600
ITEM: NUMBER OF ENTRIES
36
ITEM: BOX BOUNDS pp pp pp
-1.0000000000000000e+01 1.0000000000000000e+01
-1.0000000000000000e+01 1.0000000000000000e+01
-1.0000000000000000e+01 1.0000000000000000e+01
ITEM: ENTRIES index c_bondedatomid1 c_bondedatomid2 c_btype
1 19 20 1 
2 20 21 1 
3 11 12 1 
4 11 28 2 
5 23 24 1 
6 22 23 1 
7 22 27 2 
8 25 26 1 
9 24 26 2 
10 26 27 1 
11 5 6 1 
12 4 5 1 
13 4 8 2 
14 6 7 2 
15 8 9 1 
16 7 8 1 
17 16 17 1 
18 16 29 2 
19 16 19 2 
20 12 17 2 
21 12 21 2 
22 17 18 1 
23 18 28 2 
24 18 20 2 
25 28 29 1 
26 29 30 1 
27 10 11 1 
28 10 20 2 
29 10 30 2 
30 13 14 1 
31 14 15 1 
32 21 29 2 
33 1 2 1 
34 1 15 2 
35 2 3 1 
36 2 13 2 
ITEM: TIMESTEP
85700
ITEM: NUMBER OF ENTRIES
36
ITEM: BOX BOUNDS pp pp pp
-1.0000000000000000e+01 1.0000000000000000e+01
-1.0000000000000000e+01 1.0000000000000000e+01
-1.0000000000000000e+01 1.0000000000000000e+01
ITEM: ENTRIES index c_bondedatomid1 c_bondedatomid2 c_btype
1 19 20 1 
2 20 21 1 
3 11 12 1 
4 11 28 2 
5 23 24 1 
6 22 23 1 
7 22 27 2 
8 25 26 1 
9 24 26 2 
10 26 27 1 
11 5 6 1 
12 4 5 1 
13 4 8 2 
14 6 7 2 
15 8 9 1 
16 7 8 1 
17 16 17 1 
18 16 29 2 
19 16 19 2 
20 12 17 2 
21 12 21 2 
22 17 18 1 
23 18 28 2 
24 18 20 2 
25 28 29 1 
26 29 30 1 
27 10 11 1 
28 10 20 2 
29 10 30 2 
30 13 14 1 
31 14 15 1 
32 21 29 2 
33 1 2 1 
34 1 15 2 
35 2 3 1 
36 2 13 2 
ITEM: TIMESTEP
85800
ITEM: NUMBER OF ENTRIES
36
ITEM: BOX BOUNDS pp pp pp
-1.0000000000000000e+01 1.0000000000000000e+01
-1.0000000000000000e+01 1.0000000000000000e+01
-1.0000000000000000e+01 1.0000000000000000e+01
ITEM: ENTRIES index c_bondedatomid1 c_bondedatomid2 c_btype
1 19 20 1 
2 20 21 1 
3 11 12 1 
4 11 28 2 
5 23 24 1 
6 22 23 1 
7 22 27 2 
8 25 26 1 
9 24 26 2 
10 26 27 1 
11 5 6 1 
12 4 5 1 
13 4 8 2 
14 6 7 2 
15 8 9 1 
16 7 8 1 
17 16 17 1 
18 16 29 2 
19 16 19 2 
20 12 17 2 
21 12 21 2 
22 17 18 1 
23 18 28 2 
24 18 20 2 
25 28 29 1 
26 29 30 1 
27 10 11 1 
28 10 20 2 
29 10 30 2 
30 13 14 1 
31 14 15 1 
32 21 29 2 
33 1 2 1 
34 1 15 2 
35 2 3 1 
36 2 13 2 
ITEM: TIMESTEP
85900
ITEM: NUMBER OF ENTRIES
36
ITEM: BOX BOUNDS pp pp pp
-1.0000000000000000e+01 1.0000000000000000e+01
-1.0000000000000000e+01 1.0000000000000000e+01
-1.0000000000000000e+01 1.0000000000000000e+01
ITEM: ENTRIES index c_bondedatomid1 c_bondedatomid2 c_btype
1 19 20 1 
2 20 21 1 
3 11 12 1 
4 11 28 2 
5 23 24 1 
6 22 23 1 
7 22 27 2 
8 25 26 1 
9 24 26 2 
10 26 27 1 
11 5 6 1 
12 4 5 1 
13 4 8 2 
14 6 7 2 
15 8 9 1 
16 7 8 1 
17 16 17 1 
18 16 29 2 
19 16 19 2 
20 12 17 2 
21 12 21 2 
22 17 18 1 
23 18 28 2 
24 18 20 2 
25 28 29 1 
26 29 30 1 
27 10 11 1 
28 10 20 2 
29 10 30 2 
30 13 14 1 
31 14 15 1 
32 21 29 2 
33 1 2 1 
34 1 15 2 
35 2 3 1 
36 2 13 2 
ITEM: TIMESTEP
86000
ITEM: NUMBER OF ENTRIES
36
ITEM: BOX BOUNDS pp pp pp
-1.0000000000000000e+01 1.0000000000000000e+01
-1.0000000000000000e+01 1.0000000000000000e+01
-1.0000000000000000e+01 1.0000000000000000e+01
ITEM: ENTRIES index c_bondedatomid1 c_bondedatomid2 c_btype
1 19 20 1 
2 20 21 1 
3 11 12 1 
4 11 28 2 
5 23 24 1 
6 22 23 1 
7 22 27 2 
8 25 26 1 
9 24 26 2 
10 26 27 1 
11 5 6 1 
12 4 5 1 
13 4 8 2 
14 6 7 2 
15 8 9 1 
16 7 8 1 
17 16 17 1 
18 16 29 2 
19 16 19 2 
20 12 17 2 
21 12 21 2 
22 17 18 1 
23 18 28 2 
24 18 20 2 
25 28 29 1 
26 29 30 1 
27 10 11 1 
28 10 20 2 
29 10 30 2 
30 13 14 1 
31 14 15 1 
32 21 29 2 
33 1 2 1 
34 1 15 2 
35 2 3 1 
36 2 13 2 
ITEM: TIMESTEP
86100
ITEM: NUMBER OF ENTRIES
36
ITEM: BOX BOUNDS pp pp pp
-1.0000000000000000e+01 1.0000000000000000e+01
-1.0000000000000000e+01 1.0000000000000000e+01
-1.0000000000000000e+01 1.0000000000000000e+01
ITEM: ENTRIES index c_bondedatomid1 c_bondedatomid2 c_btype
1 19 20 1 
2 12 17 2 
3 12 21 2 
4 29 30 1 
5 20 21 1 
6 10 11 1 
7 10 20 2 
8 10 30 2 
9 23 24 1 
10 22 23 1 
11 22 27 2 
12 25 26 1 
13 24 26 2 
14 26 27 1 
15 4 5 1 
16 4 8 2 
17 7 8 1 
18 8 9 1 
19 5 6 1 
20 6 7 2 
21 16 17 1 
22 16 29 2 
23 16 19 2 
24 17 18 1 
25 18 28 2 
26 18 20 2 
27 11 12 1 
28 11 28 2 
29 28 29 1 
30 21 29 2 
31 14 15 1 
32 13 14 1 
33 1 2 1 
34 1 15 2 
35 2 3 1 
36 2 13 2 
ITEM: TIMESTEP
86200
ITEM: NUMBER OF ENTRIES
36
ITEM: BOX BOUNDS pp pp pp
-1.0000000000000000e+01 1.0000000000000000e+01
-1.0000000000000000e+01 1.0000000000000000e+01
-1.0000000000000000e+01 1.0000000000000000e+01
ITEM: ENTRIES index c_bondedatomid1 c_bondedatomid2 c_btype
1 19 20 1 
2 12 17 2 
3 12 21 2 
4 29 30 1 
5 20 21 1 
6 10 11 1 
7 10 20 2 
8 10 30 2 
9 23 24 1 
10 22 23 1 
11 22 27 2 
12 25 26 1 
13 24 26 2 
14 26 27 1 
15 4 5 1 
16 4 8 2 
17 7 8 1 
18 8 9 1 
19 5 6 1 
20 6 7 2 
21 16 17 1 
22 16 29 2 
23 16 19 2 
24 17 18 1 
25 18 28 2 
26 18 20 2 
27 11 12 1 
28 11 28 2 
29 28 29 1 
30 21 29 2 
31 14 15 1 
32 13 14 1 
33 1 2 1 
34 1 15 2 
35 2 3 1 
36 2 13 2 
ITEM: TIMESTEP
86300
ITEM: NUMBER OF ENTRIES
36
ITEM: BOX BOUNDS pp pp pp
-1.0000000000000000e+01 1.0000000000000000e+01
-1.0000000000000000e+01 1.0000000000000000e+01
-1.0000000000000000e+01 1.0000000000000000e+01
ITEM: ENTRIES index c_bondedatomid1 c_bondedatomid2 c_btype
1 19 20 1 
2 12 17 2 
3 12 21 2 
4 29 30 1 
5 20 21 1 
6 10 11 1 
7 10 20 2 
8 10 30 2 
9 23 24 1 
10 22 23 1 
11 22 27 2 
12 25 26 1 
13 24 26 2 
14 26 27 1 
15 4 5 1 
16 4 8 2 
17 7 8 1 
18 8 9 1 
19 5 6 1 
20 6 7 2 
21 16 17 1 
22 16 29 2 
23 16 19 2 
24 17 18 1 
25 18 28 2 
26 18 20 2 
27 11 12 1 
28 11 28 2 
29 28 29 1 
30 21 29 2 
31 14 15 1 
32 13 14 1 
33 1 2 1 
34 1 15 2 
35 2 3 1 
36 2 13 2 
ITEM: TIMESTEP
86400
ITEM: NUMBER OF ENTRIES
36
ITEM: BOX BOUNDS pp pp pp
-1.0000000000000000e+01 1.0000000000000000e+01
-1.0000000000000000e+01 1.0000000000000000e+01
-1.0000000000000000e+01 1.0000000000000000e+01
ITEM: ENTRIES index c_bondedatomid1 c_bondedatomid2 c_btype
1 19 20 1 
2 12 17 2 
3 12 21 2 
4 29 30 1 
5 20 21 1 
6 10 11 1 
7 10 20 2 
8 10 30 2 
9 23 24 1 
10 22 23 1 
11 22 27 2 
12 25 26 1 
13 24 26 2 
14 26 27 1 
15 4 5 1 
16 4 8 2 
17 7 8 1 
18 8 9 1 
19 5 6 1 
20 6 7 2 
21 16 17 1 
22 16 29 2 
23 16 19 2 
24 17 18 1 
25 18 28 2 
26 18 20 2 
27 11 12 1 
28 11 28 2 
29 28 29 1 
30 21 29 2 
31 14 15 1 
32 13 14 1 
33 1 2 1 
34 1 15 2 
35 2 3 1 
36 2 13 2 
ITEM: TIMESTEP
86500
ITEM: NUMBER OF ENTRIES
36
ITEM: BOX BOUNDS pp pp pp
-1.0000000000000000e+01 1.0000000000000000e+01
-1.0000000000000000e+01 1.0000000000000000e+01
-1.0000000000000000e+01 1.0000000000000000e+01
ITEM: ENTRIES index c_bondedatomid1 c_bondedatomid2 c_btype
1 19 20 1 
2 12 17 2 
3 12 21 2 
4 29 30 1 
5 20 21 1 
6 10 11 1 
7 10 20 2 
8 10 30 2 
9 23 24 1 
10 22 23 1 
11 22 27 2 
12 25 26 1 
13 24 26 2 
14 26 27 1 
15 4 5 1 
16 4 8 2 
17 7 8 1 
18 8 9 1 
19 5 6 1 
20 6 7 2 
21 16 17 1 
22 16 29 2 
23 16 19 2 
24 17 18 1 
25 18 28 2 
26 18 20 2 
27 11 12 1 
28 11 28 2 
29 28 29 1 
30 21 29 2 
31 14 15 1 
32 13 14 1 
33 1 2 1 
34 1 15 2 
35 2 3 1 
36 2 13 2 
ITEM: TIMESTEP
86600
ITEM: NUMBER OF ENTRIES
36
ITEM: BOX BOUNDS pp pp pp
-1.0000000000000000e+01 1.0000000000000000e+01
-1.0000000000000000e+01 1.0000000000000000e+01
-1.0000000000000000e+01 1.0000000000000000e+01
ITEM: ENTRIES index c_bondedatomid1 c_bondedatomid2 c_btype
1 19 20 1 
2 12 17 2 
3 12 21 2 
4 29 30 1 
5 20 21 1 
6 10 11 1 
7 10 20 2 
8 10 30 2 
9 23 24 1 
10 22 23 1 
11 22 27 2 
12 25 26 1 
13 24 26 2 
14 26 27 1 
15 4 5 1 
16 4 8 2 
17 7 8 1 
18 8 9 1 
19 5 6 1 
20 6 7 2 
21 16 17 1 
22 16 29 2 
23 16 19 2 
24 17 18 1 
25 18 28 2 
26 18 20 2 
27 11 12 1 
28 11 28 2 
29 28 29 1 
30 21 29 2 
31 14 15 1 
32 13 14 1 
33 1 2 1 
34 1 15 2 
35 2 3 1 
36 2 13 2 
ITEM: TIMESTEP
86700
ITEM: NUMBER OF ENTRIES
36
ITEM: BOX BOUNDS pp pp pp
-1.0000000000000000e+01 1.0000000000000000e+01
-1.0000000000000000e+01 1.0000000000000000e+01
-1.0000000000000000e+01 1.0000000000000000e+01
ITEM: ENTRIES index c_bondedatomid1 c_bondedatomid2 c_btype
1 19 20 1 
2 12 17 2 
3 12 21 2 
4 29 30 1 
5 20 21 1 
6 10 11 1 
7 10 20 2 
8 10 30 2 
9 23 24 1 
10 22 23 1 
11 22 27 2 
12 25 26 1 
13 24 26 2 
14 26 27 1 
15 4 5 1 
16 4 8 2 
17 7 8 1 
18 8 9 1 
19 5 6 1 
20 6 7 2 
21 16 17 1 
22 16 29 2 
23 16 19 2 
24 17 18 1 
25 18 28 2 
26 18 20 2 
27 11 12 1 
28 11 28 2 
29 28 29 1 
30 21 29 2 
31 14 15 1 
32 13 14 1 
33 1 2 1 
34 1 15 2 
35 2 3 1 
36 2 13 2 
ITEM: TIMESTEP
86800
ITEM: NUMBER OF ENTRIES
36
ITEM: BOX BOUNDS pp pp pp
-1.0000000000000000e+01 1.0000000000000000e+01
-1.0000000000000000e+01 1.0000000000000000e+01
-1.0000000000000000e+01 1.0000000000000000e+01
ITEM: ENTRIES index c_bondedatomid1 c_bondedatomid2 c_btype
1 19 20 1 
2 12 17 2 
3 12 21 2 
4 29 30 1 
5 20 21 1 
6 10 11 1 
7 10 20 2 
8 10 30 2 
9 23 24 1 
10 22 23 1 
11 22 27 2 
12 25 26 1 
13 24 26 2 
14 26 27 1 
15 4 5 1 
16 4 8 2 
17 7 8 1 
18 8 9 1 
19 5 6 1 
20 6 7 2 
21 16 17 1 
22 16 29 2 
23 16 19 2 
24 17 18 1 
25 18 28 2 
26 18 20 2 
27 11 12 1 
28 11 28 2 
29 28 29 1 
30 21 29 2 
31 14 15 1 
32 13 14 1 
33 1 2 1 
34 1 15 2 
35 2 3 1 
36 2 13 2 
ITEM: TIMESTEP
86900
ITEM: NUMBER OF ENTRIES
36
ITEM: BOX BOUNDS pp pp pp
-1.0000000000000000e+01 1.0000000000000000e+01
-1.0000000000000000e+01 1.0000000000000000e+01
-1.0000000000000000e+01 1.0000000000000000e+01
ITEM: ENTRIES index c_bondedatomid1 c_bondedatomid2 c_btype
1 19 20 1 
2 12 17 2 
3 12 21 2 
4 29 30 1 
5 20 21 1 
6 10 11 1 
7 10 20 2 
8 10 30 2 
9 23 24 1 
10 22 23 1 
11 22 27 2 
12 25 26 1 
13 24 26 2 
14 26 27 1 
15 4 5 1 
16 4 8 2 
17 7 8 1 
18 8 9 1 
19 5 6 1 
20 6 7 2 
21 16 17 1 
22 16 29 2 
23 16 19 2 
24 17 18 1 
25 18 28 2 
26 18 20 2 
27 11 12 1 
28 11 28 2 
29 28 29 1 
30 21 29 2 
31 14 15 1 
32 13 14 1 
33 1 2 1 
34 1 15 2 
35 2 3 1 
36 2 13 2 
ITEM: TIMESTEP
87000
ITEM: NUMBER OF ENTRIES
36
ITEM: BOX BOUNDS pp pp pp
-1.0000000000000000e+01 1.0000000000000000e+01
-1.0000000000000000e+01 1.0000000000000000e+01
-1.0000000000000000e+01 1.0000000000000000e+01
ITEM: ENTRIES index c_bondedatomid1 c_bondedatomid2 c_btype
1 19 20 1 
2 12 17 2 
3 12 21 2 
4 29 30 1 
5 20 21 1 
6 10 11 1 
7 10 20 2 
8 10 30 2 
9 23 24 1 
10 22 23 1 
11 22 27 2 
12 25 26 1 
13 24 26 2 
14 26 27 1 
15 4 5 1 
16 4 8 2 
17 7 8 1 
18 8 9 1 
19 5 6 1 
20 6 7 2 
21 16 17 1 
22 16 29 2 
23 16 19 2 
24 17 18 1 
25 18 28 2 
26 18 20 2 
27 11 12 1 
28 11 28 2 
29 28 29 1 
30 21 29 2 
31 14 15 1 
32 13 14 1 
33 1 2 1 
34 1 15 2 
35 2 3 1 
36 2 13 2 
ITEM: TIMESTEP
87100
ITEM: NUMBER OF ENTRIES
36
ITEM: BOX BOUNDS pp pp pp
-1.0000000000000000e+01 1.0000000000000000e+01
-1.0000000000000000e+01 1.0000000000000000e+01
-1.0000000000000000e+01 1.0000000000000000e+01
ITEM: ENTRIES index c_bondedatomid1 c_bondedatomid2 c_btype
1 19 20 1 
2 12 17 2 
3 12 21 2 
4 29 30 1 
5 20 21 1 
6 10 11 1 
7 10 20 2 
8 10 30 2 
9 23 24 1 
10 22 23 1 
11 22 27 2 
12 25 26 1 
13 24 26 2 
14 26 27 1 
15 4 5 1 
16 4 8 2 
17 7 8 1 
18 8 9 1 
19 5 6 1 
20 6 7 2 
21 16 17 1 
22 16 29 2 
23 16 19 2 
24 17 18 1 
25 18 28 2 
26 18 20 2 
27 11 12 1 
28 11 28 2 
29 28 29 1 
30 21 29 2 
31 14 15 1 
32 13 14 1 
33 1 2 1 
34 1 15 2 
35 2 3 1 
36 2 13 2 
ITEM: TIMESTEP
87200
ITEM: NUMBER OF ENTRIES
36
ITEM: BOX BOUNDS pp pp pp
-1.0000000000000000e+01 1.0000000000000000e+01
-1.0000000000000000e+01 1.0000000000000000e+01
-1.0000000000000000e+01 1.0000000000000000e+01
ITEM: ENTRIES index c_bondedatomid1 c_bondedatomid2 c_btype
1 19 20 1 
2 20 21 1 
3 16 17 1 
4 16 29 2 
5 16 19 2 
6 29 30 1 
7 10 11 1 
8 10 20 2 
9 10 30 2 
10 11 12 1 
11 11 28 2 
12 21 29 2 
13 17 18 1 
14 13 14 1 
15 23 24 1 
16 22 23 1 
17 22 27 2 
18 24 26 2 
19 25 26 1 
20 26 27 1 
21 7 8 1 
22 8 9 1 
23 4 5 1 
24 4 8 2 
25 5 6 1 
26 6 7 2 
27 18 28 2 
28 18 20 2 
29 28 29 1 
30 1 2 1 
31 1 15 2 
32 12 17 2 
33 12 21 2 
34 2 3 1 
35 2 13 2 
36 14 15 1 
ITEM: TIMESTEP
87300
ITEM: NUMBER OF ENTRIES
36
ITEM: BOX BOUNDS pp pp pp
-1.0000000000000000e+01 1.0000000000000000e+01
-1.0000000000000000e+01 1.0000000000000000e+01
-1.0000000000000000e+01 1.0000000000000000e+01
ITEM: ENTRIES index c_bondedatomid1 c_bondedatomid2 c_btype
1 19 20 1 
2 20 21 1 
3 16 17 1 
4 16 29 2 
5 16 19 2 
6 29 30 1 
7 10 11 1 
8 10 20 2 
9 10 30 2 
10 11 12 1 
11 11 28 2 
12 21 29 2 
13 17 18 1 
14 13 14 1 
15 23 24 1 
16 22 23 1 
17 22 27 2 
18 24 26 2 
19 25 26 1 
20 26 27 1 
21 7 8 1 
22 8 9 1 
23 4 5 1 
24 4 8 2 
25 5 6 1 
26 6 7 2 
27 18 28 2 
28 18 20 2 
29 28 29 1 
30 1 2 1 
31 1 15 2 
32 12 17 2 
33 12 21 2 
34 2 3 1 
35 2 13 2 
36 14 15 1 
ITEM: TIMESTEP
87400
ITEM: NUMBER OF ENTRIES
36
ITEM: BOX BOUNDS pp pp pp
-1.0000000000000000e+01 1.0000000000000000e+01
-1.0000000000000000e+01 1.0000000000000000e+01
-1.0000000000000000e+01 1.0000000000000000e+01
ITEM: ENTRIES index c_bondedatomid1 c_bondedatomid2 c_btype
1 19 20 1 
2 20 21 1 
3 16 17 1 
4 16 29 2 
5 16 19 2 
6 29 30 1 
7 10 11 1 
8 10 20 2 
9 10 30 2 
10 11 12 1 
11 11 28 2 
12 21 29 2 
13 17 18 1 
14 13 14 1 
15 23 24 1 
16 22 23 1 
17 22 27 2 
18 24 26 2 
19 25 26 1 
20 26 27 1 
21 7 8 1 
22 8 9 1 
23 4 5 1 
24 4 8 2 
25 5 6 1 
26 6 7 2 
27 18 28 2 
28 18 20 2 
29 28 29 1 
30 1 2 1 
31 1 15 2 
32 12 17 2 
33 12 21 2 
34 2 3 1 
35 2 13 2 
36 14 15 1 
ITEM: TIMESTEP
87500
ITEM: NUMBER OF ENTRIES
36
ITEM: BOX BOUNDS pp pp pp
-1.0000000000000000e+01 1.0000000000000000e+01
-1.0000000000000000e+01 1.0000000000000000e+01
-1.0000000000000000e+01 1.0000000000000000e+01
ITEM: ENTRIES index c_bondedatomid1 c_bondedatomid2 c_btype
1 19 20 1 
2 20 21 1 
3 16 17 1 
4 16 29 2 
5 16 19 2 
6 29 30 1 
7 10 11 1 
8 10 20 2 
9 10 30 2 
10 11 12 1 
11 11 28 2 
12 21 29 2 
13 17 18 1 
14 13 14 1 
15 23 24 1 
16 22 23 1 
17 22 27 2 
18 24 26 2 
19 25 26 1 
20 26 27 1 
21 7 8 1 
22 8 9 1 
23 4 5 1 
24 4 8 2 
25 5 6 1 
26 6 7 2 
27 18 28 2 
28 18 20 2 
29 28 29 1 
30 1 2 1 
31 1 15 2 
32 12 17 2 
33 12 21 2 
34 2 3 1 
35 2 13 2 
36 14 15 1 
ITEM: TIMESTEP
87600
ITEM: NUMBER OF ENTRIES
36
ITEM: BOX BOUNDS pp pp pp
-1.0000000000000000e+01 1.0000000000000000e+01
-1.0000000000000000e+01 1.0000000000000000e+01
-1.0000000000000000e+01 1.0000000000000000e+01
ITEM: ENTRIES index c_bondedatomid1 c_bondedatomid2 c_btype
1 19 20 1 
2 20 21 1 
3 16 17 1 
4 16 29 2 
5 16 19 2 
6 29 30 1 
7 10 11 1 
8 10 20 2 
9 10 30 2 
10 11 12 1 
11 11 28 2 
12 21 29 2 
13 17 18 1 
14 13 14 1 
15 23 24 1 
16 22 23 1 
17 22 27 2 
18 24 26 2 
19 25 26 1 
20 26 27 1 
21 7 8 1 
22 8 9 1 
23 4 5 1 
24 4 8 2 
25 5 6 1 
26 6 7 2 
27 18 28 2 
28 18 20 2 
29 28 29 1 
30 1 2 1 
31 1 15 2 
32 12 17 2 
33 12 21 2 
34 2 3 1 
35 2 13 2 
36 14 15 1 
ITEM: TIMESTEP
87700
ITEM: NUMBER OF ENTRIES
36
ITEM: BOX BOUNDS pp pp pp
-1.0000000000000000e+01 1.0000000000000000e+01
-1.0000000000000000e+01 1.0000000000000000e+01
-1.0000000000000000e+01 1.0000000000000000e+01
ITEM: ENTRIES index c_bondedatomid1 c_bondedatomid2 c_btype
1 19 20 1 
2 20 21 1 
3 16 17 1 
4 16 29 2 
5 16 19 2 
6 29 30 1 
7 10 11 1 
8 10 20 2 
9 10 30 2 
10 11 12 1 
11 11 28 2 
12 21 29 2 
13 17 18 1 
14 13 14 1 
15 23 24 1 
16 22 23 1 
17 22 27 2 
18 24 26 2 
19 25 26 1 
20 26 27 1 
21 7 8 1 
22 8 9 1 
23 4 5 1 
24 4 8 2 
25 5 6 1 
26 6 7 2 
27 18 28 2 
28 18 20 2 
29 28 29 1 
30 1 2 1 
31 1 15 2 
32 12 17 2 
33 12 21 2 
34 2 3 1 
35 2 13 2 
36 14 15 1 
ITEM: TIMESTEP
87800
ITEM: NUMBER OF ENTRIES
36
ITEM: BOX BOUNDS pp pp pp
-1.0000000000000000e+01 1.0000000000000000e+01
-1.0000000000000000e+01 1.0000000000000000e+01
-1.0000000000000000e+01 1.0000000000000000e+01
ITEM: ENTRIES index c_bondedatomid1 c_bondedatomid2 c_btype
1 19 20 1 
2 20 21 1 
3 16 17 1 
4 16 29 2 
5 16 19 2 
6 29 30 1 
7 10 11 1 
8 10 20 2 
9 10 30 2 
10 11 12 1 
11 11 28 2 
12 21 29 2 
13 17 18 1 
14 13 14 1 
15 23 24 1 
16 22 23 1 
17 22 27 2 
18 24 26 2 
19 25 26 1 
20 26 27 1 
21 7 8 1 
22 8 9 1 
23 4 5 1 
24 4 8 2 
25 5 6 1 
26 6 7 2 
27 18 28 2 
28 18 20 2 
29 28 29 1 
30 1 2 1 
31 1 15 2 
32 12 17 2 
33 12 21 2 
34 2 3 1 
35 2 13 2 
36 14 15 1 
ITEM: TIMESTEP
87900
ITEM: NUMBER OF ENTRIES
36
ITEM: BOX BOUNDS pp pp pp
-1.0000000000000000e+01 1.0000000000000000e+01
-1.0000000000000000e+01 1.0000000000000000e+01
-1.0000000000000000e+01 1.0000000000000000e+01
ITEM: ENTRIES index c_bondedatomid1 c_bondedatomid2 c_btype
1 19 20 1 
2 20 21 1 
3 16 17 1 
4 16 29 2 
5 16 19 2 
6 29 30 1 
7 10 11 1 
8 10 20 2 
9 10 30 2 
10 11 12 1 
11 11 28 2 
12 21 29 2 
13 17 18 1 
14 13 14 1 
15 23 24 1 
16 22 23 1 
17 22 27 2 
18 24 26 2 
19 25 26 1 
20 26 27 1 
21 7 8 1 
22 8 9 1 
23 4 5 1 
24 4 8 2 
25 5 6 1 
26 6 7 2 
27 18 28 2 
28 18 20 2 
29 28 29 1 
30 1 2 1 
31 1 15 2 
32 12 17 2 
33 12 21 2 
34 2 3 1 
35 2 13 2 
36 14 15 1 
ITEM: TIMESTEP
88000
ITEM: NUMBER OF ENTRIES
36
ITEM: BOX BOUNDS pp pp pp
-1.0000000000000000e+01 1.0000000000000000e+01
-1.0000000000000000e+01 1.0000000000000000e+01
-1.0000000000000000e+01 1.0000000000000000e+01
ITEM: ENTRIES index c_bondedatomid1 c_bondedatomid2 c_btype
1 19 20 1 
2 20 21 1 
3 16 17 1 
4 16 29 2 
5 16 19 2 
6 29 30 1 
7 10 11 1 
8 10 20 2 
9 10 30 2 
10 11 12 1 
11 11 28 2 
12 21 29 2 
13 17 18 1 
14 13 14 1 
15 23 24 1 
16 22 23 1 
17 22 27 2 
18 24 26 2 
19 25 26 1 
20 26 27 1 
21 7 8 1 
22 8 9 1 
23 4 5 1 
24 4 8 2 
25 5 6 1 
26 6 7 2 
27 18 28 2 
28 18 20 2 
29 28 29 1 
30 1 2 1 
31 1 15 2 
32 12 17 2 
33 12 21 2 
34 2 3 1 
35 2 13 2 
36 14 15 1 
ITEM: TIMESTEP
88100
ITEM: NUMBER OF ENTRIES
36
ITEM: BOX BOUNDS pp pp pp
-1.0000000000000000e+01 1.0000000000000000e+01
-1.0000000000000000e+01 1.0000000000000000e+01
-1.0000000000000000e+01 1.0000000000000000e+01
ITEM: ENTRIES index c_bondedatomid1 c_bondedatomid2 c_btype
1 19 20 1 
2 16 17 1 
3 16 29 2 
4 16 19 2 
5 20 21 1 
6 10 11 1 
7 10 20 2 
8 10 30 2 
9 17 18 1 
10 18 28 2 
11 18 20 2 
12 28 29 1 
13 29 30 1 
14 11 12 1 
15 11 28 2 
16 21 29 2 
17 12 17 2 
18 12 21 2 
19 13 14 1 
20 14 15 1 
21 22 23 1 
22 22 27 2 
23 25 26 1 
24 26 27 1 
25 6 7 2 
26 23 24 1 
27 24 26 2 
28 7 8 1 
29 8 9 1 
30 4 5 1 
31 4 8 2 
32 5 6 1 
33 2 3 1 
34 2 13 2 
35 1 2 1 
36 1 15 2 
ITEM: TIMESTEP
88200
ITEM: NUMBER OF ENTRIES
36
ITEM: BOX BOUNDS pp pp pp
-1.0000000000000000e+01 1.0000000000000000e+01
-1.0000000000000000e+01 1.0000000000000000e+01
-1.0000000000000000e+01 1.0000000000000000e+01
ITEM: ENTRIES index c_bondedatomid1 c_bondedatomid2 c_btype
1 19 20 1 
2 16 17 1 
3 16 29 2 
4 16 19 2 
5 20 21 1 
6 10 11 1 
7 10 20 2 
8 10 30 2 
9 17 18 1 
10 18 28 2 
11 18 20 2 
12 28 29 1 
13 29 30 1 
14 11 12 1 
15 11 28 2 
16 21 29 2 
17 12 17 2 
18 12 21 2 
19 13 14 1 
20 14 15 1 
21 22 23 1 
22 22 27 2 
23 25 26 1 
24 26 27 1 
25 6 7 2 
26 23 24 1 
27 24 26 2 
28 7 8 1 
29 8 9 1 
30 4 5 1 
31 4 8 2 
32 5 6 1 
33 2 3 1 
34 2 13 2 
35 1 2 1 
36 1 15 2 
ITEM: TIMESTEP
88300
ITEM: NUMBER OF ENTRIES
36
ITEM: BOX BOUNDS pp pp pp
-1.0000000000000000e+01 1.0000000000000000e+01
-1.0000000000000000e+01 1.0000000000000000e+01
-1.0000000000000000e+01 1.0000000000000000e+01
ITEM: ENTRIES index c_bondedatomid1 c_bondedatomid2 c_btype
1 19 20 1 
2 16 17 1 
3 16 29 2 
4 16 19 2 
5 20 21 1 
6 10 11 1 
7 10 20 2 
8 10 30 2 
9 17 18 1 
10 18 28 2 
11 18 20 2 
12 28 29 1 
13 29 30 1 
14 11 12 1 
15 11 28 2 
16 21 29 2 
17 12 17 2 
18 12 21 2 
19 13 14 1 
20 14 15 1 
21 22 23 1 
22 22 27 2 
23 25 26 1 
24 26 27 1 
25 6 7 2 
26 23 24 1 
27 24 26 2 
28 7 8 1 
29 8 9 1 
30 4 5 1 
31 4 8 2 
32 5 6 1 
33 2 3 1 
34 2 13 2 
35 1 2 1 
36 1 15 2 
ITEM: TIMESTEP
88400
ITEM: NUMBER OF ENTRIES
36
ITEM: BOX BOUNDS pp pp pp
-1.0000000000000000e+01 1.0000000000000000e+01
-1.0000000000000000e+01 1.0000000000000000e+01
-1.0000000000000000e+01 1.0000000000000000e+01
ITEM: ENTRIES index c_bondedatomid1 c_bondedatomid2 c_btype
1 19 20 1 
2 16 17 1 
3 16 29 2 
4 16 19 2 
5 20 21 1 
6 10 11 1 
7 10 20 2 
8 10 30 2 
9 17 18 1 
10 18 28 2 
11 18 20 2 
12 28 29 1 
13 29 30 1 
14 11 12 1 
15 11 28 2 
16 21 29 2 
17 12 17 2 
18 12 21 2 
19 13 14 1 
20 14 15 1 
21 22 23 1 
22 22 27 2 
23 25 26 1 
24 26 27 1 
25 6 7 2 
26 23 24 1 
27 24 26 2 
28 7 8 1 
29 8 9 1 
30 4 5 1 
31 4 8 2 
32 5 6 1 
33 2 3 1 
34 2 13 2 
35 1 2 1 
36 1 15 2 
ITEM: TIMESTEP
88500
ITEM: NUMBER OF ENTRIES
36
ITEM: BOX BOUNDS pp pp pp
-1.0000000000000000e+01 1.0000000000000000e+01
-1.0000000000000000e+01 1.0000000000000000e+01
-1.0000000000000000e+01 1.0000000000000000e+01
ITEM: ENTRIES index c_bondedatomid1 c_bondedatomid2 c_btype
1 19 20 1 
2 16 17 1 
3 16 29 2 
4 16 19 2 
5 20 21 1 
6 10 11 1 
7 10 20 2 
8 10 30 2 
9 17 18 1 
10 18 28 2 
11 18 20 2 
12 28 29 1 
13 29 30 1 
14 11 12 1 
15 11 28 2 
16 21 29 2 
17 12 17 2 
18 12 21 2 
19 13 14 1 
20 14 15 1 
21 22 23 1 
22 22 27 2 
23 25 26 1 
24 26 27 1 
25 6 7 2 
26 23 24 1 
27 24 26 2 
28 7 8 1 
29 8 9 1 
30 4 5 1 
31 4 8 2 
32 5 6 1 
33 2 3 1 
34 2 13 2 
35 1 2 1 
36 1 15 2 
ITEM: TIMESTEP
88600
ITEM: NUMBER OF ENTRIES
36
ITEM: BOX BOUNDS pp pp pp
-1.0000000000000000e+01 1.0000000000000000e+01
-1.0000000000000000e+01 1.0000000000000000e+01
-1.0000000000000000e+01 1.0000000000000000e+01
ITEM: ENTRIES index c_bondedatomid1 c_bondedatomid2 c_btype
1 19 20 1 
2 16 17 1 
3 16 29 2 
4 16 19 2 
5 20 21 1 
6 10 11 1 
7 10 20 2 
8 10 30 2 
9 17 18 1 
10 18 28 2 
11 18 20 2 
12 28 29 1 
13 29 30 1 
14 11 12 1 
15 11 28 2 
16 21 29 2 
17 12 17 2 
18 12 21 2 
19 13 14 1 
20 14 15 1 
21 22 23 1 
22 22 27 2 
23 25 26 1 
24 26 27 1 
25 6 7 2 
26 23 24 1 
27 24 26 2 
28 7 8 1 
29 8 9 1 
30 4 5 1 
31 4 8 2 
32 5 6 1 
33 2 3 1 
34 2 13 2 
35 1 2 1 
36 1 15 2 
ITEM: TIMESTEP
88700
ITEM: NUMBER OF ENTRIES
36
ITEM: BOX BOUNDS pp pp pp
-1.0000000000000000e+01 1.0000000000000000e+01
-1.0000000000000000e+01 1.0000000000000000e+01
-1.0000000000000000e+01 1.0000000000000000e+01
ITEM: ENTRIES index c_bondedatomid1 c_bondedatomid2 c_btype
1 19 20 1 
2 16 17 1 
3 16 29 2 
4 16 19 2 
5 20 21 1 
6 10 11 1 
7 10 20 2 
8 10 30 2 
9 17 18 1 
10 18 28 2 
11 18 20 2 
12 28 29 1 
13 29 30 1 
14 11 12 1 
15 11 28 2 
16 21 29 2 
17 12 17 2 
18 12 21 2 
19 13 14 1 
20 14 15 1 
21 22 23 1 
22 22 27 2 
23 25 26 1 
24 26 27 1 
25 6 7 2 
26 23 24 1 
27 24 26 2 
28 7 8 1 
29 8 9 1 
30 4 5 1 
31 4 8 2 
32 5 6 1 
33 2 3 1 
34 2 13 2 
35 1 2 1 
36 1 15 2 
ITEM: TIMESTEP
88800
ITEM: NUMBER OF ENTRIES
36
ITEM: BOX BOUNDS pp pp pp
-1.0000000000000000e+01 1.0000000000000000e+01
-1.0000000000000000e+01 1.0000000000000000e+01
-1.0000000000000000e+01 1.0000000000000000e+01
ITEM: ENTRIES index c_bondedatomid1 c_bondedatomid2 c_btype
1 19 20 1 
2 16 17 1 
3 16 29 2 
4 16 19 2 
5 20 21 1 
6 10 11 1 
7 10 20 2 
8 10 30 2 
9 17 18 1 
10 18 28 2 
11 18 20 2 
12 28 29 1 
13 29 30 1 
14 11 12 1 
15 11 28 2 
16 21 29 2 
17 12 17 2 
18 12 21 2 
19 13 14 1 
20 14 15 1 
21 22 23 1 
22 22 27 2 
23 25 26 1 
24 26 27 1 
25 6 7 2 
26 23 24 1 
27 24 26 2 
28 7 8 1 
29 8 9 1 
30 4 5 1 
31 4 8 2 
32 5 6 1 
33 2 3 1 
34 2 13 2 
35 1 2 1 
36 1 15 2 
ITEM: TIMESTEP
88900
ITEM: NUMBER OF ENTRIES
36
ITEM: BOX BOUNDS pp pp pp
-1.0000000000000000e+01 1.0000000000000000e+01
-1.0000000000000000e+01 1.0000000000000000e+01
-1.0000000000000000e+01 1.0000000000000000e+01
ITEM: ENTRIES index c_bondedatomid1 c_bondedatomid2 c_btype
1 19 20 1 
2 16 17 1 
3 16 29 2 
4 16 19 2 
5 20 21 1 
6 10 11 1 
7 10 20 2 
8 10 30 2 
9 17 18 1 
10 18 28 2 
11 18 20 2 
12 28 29 1 
13 29 30 1 
14 11 12 1 
15 11 28 2 
16 21 29 2 
17 12 17 2 
18 12 21 2 
19 13 14 1 
20 14 15 1 
21 22 23 1 
22 22 27 2 
23 25 26 1 
24 26 27 1 
25 6 7 2 
26 23 24 1 
27 24 26 2 
28 7 8 1 
29 8 9 1 
30 4 5 1 
31 4 8 2 
32 5 6 1 
33 2 3 1 
34 2 13 2 
35 1 2 1 
36 1 15 2 
ITEM: TIMESTEP
89000
ITEM: NUMBER OF ENTRIES
36
ITEM: BOX BOUNDS pp pp pp
-1.0000000000000000e+01 1.0000000000000000e+01
-1.0000000000000000e+01 1.0000000000000000e+01
-1.0000000000000000e+01 1.0000000000000000e+01
ITEM: ENTRIES index c_bondedatomid1 c_bondedatomid2 c_btype
1 19 20 1 
2 16 17 1 
3 16 29 2 
4 16 19 2 
5 20 21 1 
6 10 11 1 
7 10 20 2 
8 10 30 2 
9 17 18 1 
10 18 28 2 
11 18 20 2 
12 28 29 1 
13 29 30 1 
14 11 12 1 
15 11 28 2 
16 21 29 2 
17 12 17 2 
18 12 21 2 
19 13 14 1 
20 14 15 1 
21 22 23 1 
22 22 27 2 
23 25 26 1 
24 26 27 1 
25 6 7 2 
26 23 24 1 
27 24 26 2 
28 7 8 1 
29 8 9 1 
30 4 5 1 
31 4 8 2 
32 5 6 1 
33 2 3 1 
34 2 13 2 
35 1 2 1 
36 1 15 2 
ITEM: TIMESTEP
89100
ITEM: NUMBER OF ENTRIES
36
ITEM: BOX BOUNDS pp pp pp
-1.0000000000000000e+01 1.0000000000000000e+01
-1.0000000000000000e+01 1.0000000000000000e+01
-1.0000000000000000e+01 1.0000000000000000e+01
ITEM: ENTRIES index c_bondedatomid1 c_bondedatomid2 c_btype
1 28 29 1 
2 19 20 1 
3 16 17 1 
4 16 29 2 
5 16 19 2 
6 18 28 2 
7 18 20 2 
8 21 29 2 
9 12 17 2 
10 12 21 2 
11 13 14 1 
12 10 11 1 
13 10 20 2 
14 10 30 2 
15 17 18 1 
16 29 30 1 
17 11 12 1 
18 11 28 2 
19 14 15 1 
20 22 23 1 
21 22 27 2 
22 26 27 1 
23 23 24 1 
24 5 6 1 
25 25 26 1 
26 24 26 2 
27 6 7 2 
28 7 8 1 
29 8 9 1 
30 4 5 1 
31 4 8 2 
32 20 21 1 
33 2 3 1 
34 2 13 2 
35 1 2 1 
36 1 15 2 
ITEM: TIMESTEP
89200
ITEM: NUMBER OF ENTRIES
36
ITEM: BOX BOUNDS pp pp pp
-1.0000000000000000e+01 1.0000000000000000e+01
-1.0000000000000000e+01 1.0000000000000000e+01
-1.0000000000000000e+01 1.0000000000000000e+01
ITEM: ENTRIES index c_bondedatomid1 c_bondedatomid2 c_btype
1 28 29 1 
2 19 20 1 
3 16 17 1 
4 16 29 2 
5 16 19 2 
6 18 28 2 
7 18 20 2 
8 21 29 2 
9 12 17 2 
10 12 21 2 
11 13 14 1 
12 10 11 1 
13 10 20 2 
14 10 30 2 
15 17 18 1 
16 29 30 1 
17 11 12 1 
18 11 28 2 
19 14 15 1 
20 22 23 1 
21 22 27 2 
22 26 27 1 
23 23 24 1 
24 5 6 1 
25 25 26 1 
26 24 26 2 
27 6 7 2 
28 7 8 1 
29 8 9 1 
30 4 5 1 
31 4 8 2 
32 20 21 1 
33 2 3 1 
34 2 13 2 
35 1 2 1 
36 1 15 2 
ITEM: TIMESTEP
89300
ITEM: NUMBER OF ENTRIES
36
ITEM: BOX BOUNDS pp pp pp
-1.0000000000000000e+01 1.0000000000000000e+01
-1.0000000000000000e+01 1.0000000000000000e+01
-1.0000000000000000e+01 1.0000000000000000e+01
ITEM: ENTRIES index c_bondedatomid1 c_bondedatomid2 c_btype
1 28 29 1 
2 19 20 1 
3 16 17 1 
4 16 29 2 
5 16 19 2 
6 18 28 2 
7 18 20 2 
8 21 29 2 
9 12 17 2 
10 12 21 2 
11 13 14 1 
12 10 11 1 
13 10 20 2 
14 10 30 2 
15 17 18 1 
16 29 30 1 
17 11 12 1 
18 11 28 2 
19 14 15 1 
20 22 23 1 
21 22 27 2 
22 26 27 1 
23 23 24 1 
24 5 6 1 
25 25 26 1 
26 24 26 2 
27 6 7 2 
28 7 8 1 
29 8 9 1 
30 4 5 1 
31 4 8 2 
32 20 21 1 
33 2 3 1 
34 2 13 2 
35 1 2 1 
36 1 15 2 
ITEM: TIMESTEP
89400
ITEM: NUMBER OF ENTRIES
36
ITEM: BOX BOUNDS pp pp pp
-1.0000000000000000e+01 1.0000000000000000e+01
-1.0000000000000000e+01 1.0000000000000000e+01
-1.0000000000000000e+01 1.0000000000000000e+01
ITEM: ENTRIES index c_bondedatomid1 c_bondedatomid2 c_btype
1 28 29 1 
2 19 20 1 
3 16 17 1 
4 16 29 2 
5 16 19 2 
6 18 28 2 
7 18 20 2 
8 21 29 2 
9 12 17 2 
10 12 21 2 
11 13 14 1 
12 10 11 1 
13 10 20 2 
14 10 30 2 
15 17 18 1 
16 29 30 1 
17 11 12 1 
18 11 28 2 
19 14 15 1 
20 22 23 1 
21 22 27 2 
22 26 27 1 
23 23 24 1 
24 5 6 1 
25 25 26 1 
26 24 26 2 
27 6 7 2 
28 7 8 1 
29 8 9 1 
30 4 5 1 
31 4 8 2 
32 20 21 1 
33 2 3 1 
34 2 13 2 
35 1 2 1 
36 1 15 2 
ITEM: TIMESTEP
89500
ITEM: NUMBER OF ENTRIES
36
ITEM: BOX BOUNDS pp pp pp
-1.0000000000000000e+01 1.0000000000000000e+01
-1.0000000000000000e+01 1.0000000000000000e+01
-1.0000000000000000e+01 1.0000000000000000e+01
ITEM: ENTRIES index c_bondedatomid1 c_bondedatomid2 c_btype
1 28 29 1 
2 19 20 1 
3 16 17 1 
4 16 29 2 
5 16 19 2 
6 18 28 2 
7 18 20 2 
8 21 29 2 
9 12 17 2 
10 12 21 2 
11 13 14 1 
12 10 11 1 
13 10 20 2 
14 10 30 2 
15 17 18 1 
16 29 30 1 
17 11 12 1 
18 11 28 2 
19 14 15 1 
20 22 23 1 
21 22 27 2 
22 26 27 1 
23 23 24 1 
24 5 6 1 
25 25 26 1 
26 24 26 2 
27 6 7 2 
28 7 8 1 
29 8 9 1 
30 4 5 1 
31 4 8 2 
32 20 21 1 
33 2 3 1 
34 2 13 2 
35 1 2 1 
36 1 15 2 
ITEM: TIMESTEP
89600
ITEM: NUMBER OF ENTRIES
36
ITEM: BOX BOUNDS pp pp pp
-1.0000000000000000e+01 1.0000000000000000e+01
-1.0000000000000000e+01 1.0000000000000000e+01
-1.0000000000000000e+01 1.0000000000000000e+01
ITEM: ENTRIES index c_bondedatomid1 c_bondedatomid2 c_btype
1 28 29 1 
2 19 20 1 
3 16 17 1 
4 16 29 2 
5 16 19 2 
6 18 28 2 
7 18 20 2 
8 21 29 2 
9 12 17 2 
10 12 21 2 
11 13 14 1 
12 10 11 1 
13 10 20 2 
14 10 30 2 
15 17 18 1 
16 29 30 1 
17 11 12 1 
18 11 28 2 
19 14 15 1 
20 22 23 1 
21 22 27 2 
22 26 27 1 
23 23 24 1 
24 5 6 1 
25 25 26 1 
26 24 26 2 
27 6 7 2 
28 7 8 1 
29 8 9 1 
30 4 5 1 
31 4 8 2 
32 20 21 1 
33 2 3 1 
34 2 13 2 
35 1 2 1 
36 1 15 2 
ITEM: TIMESTEP
89700
ITEM: NUMBER OF ENTRIES
36
ITEM: BOX BOUNDS pp pp pp
-1.0000000000000000e+01 1.0000000000000000e+01
-1.0000000000000000e+01 1.0000000000000000e+01
-1.0000000000000000e+01 1.0000000000000000e+01
ITEM: ENTRIES index c_bondedatomid1 c_bondedatomid2 c_btype
1 28 29 1 
2 19 20 1 
3 16 17 1 
4 16 29 2 
5 16 19 2 
6 18 28 2 
7 18 20 2 
8 21 29 2 
9 12 17 2 
10 12 21 2 
11 13 14 1 
12 10 11 1 
13 10 20 2 
14 10 30 2 
15 17 18 1 
16 29 30 1 
17 11 12 1 
18 11 28 2 
19 14 15 1 
20 22 23 1 
21 22 27 2 
22 26 27 1 
23 23 24 1 
24 5 6 1 
25 25 26 1 
26 24 26 2 
27 6 7 2 
28 7 8 1 
29 8 9 1 
30 4 5 1 
31 4 8 2 
32 20 21 1 
33 2 3 1 
34 2 13 2 
35 1 2 1 
36 1 15 2 
ITEM: TIMESTEP
89800
ITEM: NUMBER OF ENTRIES
36
ITEM: BOX BOUNDS pp pp pp
-1.0000000000000000e+01 1.0000000000000000e+01
-1.0000000000000000e+01 1.0000000000000000e+01
-1.0000000000000000e+01 1.0000000000000000e+01
ITEM: ENTRIES index c_bondedatomid1 c_bondedatomid2 c_btype
1 28 29 1 
2 19 20 1 
3 16 17 1 
4 16 29 2 
5 16 19 2 
6 18 28 2 
7 18 20 2 
8 21 29 2 
9 12 17 2 
10 12 21 2 
11 13 14 1 
12 10 11 1 
13 10 20 2 
14 10 30 2 
15 17 18 1 
16 29 30 1 
17 11 12 1 
18 11 28 2 
19 14 15 1 
20 22 23 1 
21 22 27 2 
22 26 27 1 
23 23 24 1 
24 5 6 1 
25 25 26 1 
26 24 26 2 
27 6 7 2 
28 7 8 1 
29 8 9 1 
30 4 5 1 
31 4 8 2 
32 20 21 1 
33 2 3 1 
34 2 13 2 
35 1 2 1 
36 1 15 2 
ITEM: TIMESTEP
89900
ITEM: NUMBER OF ENTRIES
36
ITEM: BOX BOUNDS pp pp pp
-1.0000000000000000e+01 1.0000000000000000e+01
-1.0000000000000000e+01 1.0000000000000000e+01
-1.0000000000000000e+01 1.0000000000000000e+01
ITEM: ENTRIES index c_bondedatomid1 c_bondedatomid2 c_btype
1 28 29 1 
2 19 20 1 
3 16 17 1 
4 16 29 2 
5 16 19 2 
6 18 28 2 
7 18 20 2 
8 21 29 2 
9 12 17 2 
10 12 21 2 
11 13 14 1 
12 10 11 1 
13 10 20 2 
14 10 30 2 
15 17 18 1 
16 29 30 1 
17 11 12 1 
18 11 28 2 
19 14 15 1 
20 22 23 1 
21 22 27 2 
22 26 27 1 
23 23 24 1 
24 5 6 1 
25 25 26 1 
26 24 26 2 
27 6 7 2 
28 7 8 1 
29 8 9 1 
30 4 5 1 
31 4 8 2 
32 20 21 1 
33 2 3 1 
34 2 13 2 
35 1 2 1 
36 1 15 2 
ITEM: TIMESTEP
90000
ITEM: NUMBER OF ENTRIES
36
ITEM: BOX BOUNDS pp pp pp
-1.0000000000000000e+01 1.0000000000000000e+01
-1.0000000000000000e+01 1.0000000000000000e+01
-1.0000000000000000e+01 1.0000000000000000e+01
ITEM: ENTRIES index c_bondedatomid1 c_bondedatomid2 c_btype
1 28 29 1 
2 19 20 1 
3 16 17 1 
4 16 29 2 
5 16 19 2 
6 18 28 2 
7 18 20 2 
8 21 29 2 
9 12 17 2 
10 12 21 2 
11 13 14 1 
12 10 11 1 
13 10 20 2 
14 10 30 2 
15 17 18 1 
16 29 30 1 
17 11 12 1 
18 11 28 2 
19 14 15 1 
20 22 23 1 
21 22 27 2 
22 26 27 1 
23 23 24 1 
24 5 6 1 
25 25 26 1 
26 24 26 2 
27 6 7 2 
28 7 8 1 
29 8 9 1 
30 4 5 1 
31 4 8 2 
32 20 21 1 
33 2 3 1 
34 2 13 2 
35 1 2 1 
36 1 15 2 
ITEM: TIMESTEP
90100
ITEM: NUMBER OF ENTRIES
36
ITEM: BOX BOUNDS pp pp pp
-1.0000000000000000e+01 1.0000000000000000e+01
-1.0000000000000000e+01 1.0000000000000000e+01
-1.0000000000000000e+01 1.0000000000000000e+01
ITEM: ENTRIES index c_bondedatomid1 c_bondedatomid2 c_btype
1 19 20 1 
2 29 30 1 
3 20 21 1 
4 28 29 1 
5 16 17 1 
6 16 29 2 
7 16 19 2 
8 21 29 2 
9 14 15 1 
10 10 11 1 
11 10 20 2 
12 10 30 2 
13 11 12 1 
14 11 28 2 
15 18 28 2 
16 18 20 2 
17 12 17 2 
18 12 21 2 
19 17 18 1 
20 23 24 1 
21 25 26 1 
22 5 6 1 
23 22 23 1 
24 22 27 2 
25 26 27 1 
26 24 26 2 
27 6 7 2 
28 7 8 1 
29 8 9 1 
30 4 5 1 
31 4 8 2 
32 13 14 1 
33 2 3 1 
34 2 13 2 
35 1 2 1 
36 1 15 2 
ITEM: TIMESTEP
90200
ITEM: NUMBER OF ENTRIES
36
ITEM: BOX BOUNDS pp pp pp
-1.0000000000000000e+01 1.0000000000000000e+01
-1.0000000000000000e+01 1.0000000000000000e+01
-1.0000000000000000e+01 1.0000000000000000e+01
ITEM: ENTRIES index c_bondedatomid1 c_bondedatomid2 c_btype
1 19 20 1 
2 29 30 1 
3 20 21 1 
4 28 29 1 
5 16 17 1 
6 16 29 2 
7 16 19 2 
8 21 29 2 
9 14 15 1 
10 10 11 1 
11 10 20 2 
12 10 30 2 
13 11 12 1 
14 11 28 2 
15 18 28 2 
16 18 20 2 
17 12 17 2 
18 12 21 2 
19 17 18 1 
20 23 24 1 
21 25 26 1 
22 5 6 1 
23 22 23 1 
24 22 27 2 
25 26 27 1 
26 24 26 2 
27 6 7 2 
28 7 8 1 
29 8 9 1 
30 4 5 1 
31 4 8 2 
32 13 14 1 
33 2 3 1 
34 2 13 2 
35 1 2 1 
36 1 15 2 
ITEM: TIMESTEP
90300
ITEM: NUMBER OF ENTRIES
36
ITEM: BOX BOUNDS pp pp pp
-1.0000000000000000e+01 1.0000000000000000e+01
-1.0000000000000000e+01 1.0000000000000000e+01
-1.0000000000000000e+01 1.0000000000000000e+01
ITEM: ENTRIES index c_bondedatomid1 c_bondedatomid2 c_btype
1 19 20 1 
2 29 30 1 
3 20 21 1 
4 28 29 1 
5 16 17 1 
6 16 29 2 
7 16 19 2 
8 21 29 2 
9 14 15 1 
10 10 11 1 
11 10 20 2 
12 10 30 2 
13 11 12 1 
14 11 28 2 
15 18 28 2 
16 18 20 2 
17 12 17 2 
18 12 21 2 
19 17 18 1 
20 23 24 1 
21 25 26 1 
22 5 6 1 
23 22 23 1 
24 22 27 2 
25 26 27 1 
26 24 26 2 
27 6 7 2 
28 7 8 1 
29 8 9 1 
30 4 5 1 
31 4 8 2 
32 13 14 1 
33 2 3 1 
34 2 13 2 
35 1 2 1 
36 1 15 2 
ITEM: TIMESTEP
90400
ITEM: NUMBER OF ENTRIES
36
ITEM: BOX BOUNDS pp pp pp
-1.0000000000000000e+01 1.0000000000000000e+01
-1.0000000000000000e+01 1.0000000000000000e+01
-1.0000000000000000e+01 1.0000000000000000e+01
ITEM: ENTRIES index c_bondedatomid1 c_bondedatomid2 c_btype
1 19 20 1 
2 29 30 1 
3 20 21 1 
4 28 29 1 
5 16 17 1 
6 16 29 2 
7 16 19 2 
8 21 29 2 
9 14 15 1 
10 10 11 1 
11 10 20 2 
12 10 30 2 
13 11 12 1 
14 11 28 2 
15 18 28 2 
16 18 20 2 
17 12 17 2 
18 12 21 2 
19 17 18 1 
20 23 24 1 
21 25 26 1 
22 5 6 1 
23 22 23 1 
24 22 27 2 
25 26 27 1 
26 24 26 2 
27 6 7 2 
28 7 8 1 
29 8 9 1 
30 4 5 1 
31 4 8 2 
32 13 14 1 
33 2 3 1 
34 2 13 2 
35 1 2 1 
36 1 15 2 
ITEM: TIMESTEP
90500
ITEM: NUMBER OF ENTRIES
36
ITEM: BOX BOUNDS pp pp pp
-1.0000000000000000e+01 1.0000000000000000e+01
-1.0000000000000000e+01 1.0000000000000000e+01
-1.0000000000000000e+01 1.0000000000000000e+01
ITEM: ENTRIES index c_bondedatomid1 c_bondedatomid2 c_btype
1 19 20 1 
2 29 30 1 
3 20 21 1 
4 28 29 1 
5 16 17 1 
6 16 29 2 
7 16 19 2 
8 21 29 2 
9 14 15 1 
10 10 11 1 
11 10 20 2 
12 10 30 2 
13 11 12 1 
14 11 28 2 
15 18 28 2 
16 18 20 2 
17 12 17 2 
18 12 21 2 
19 17 18 1 
20 23 24 1 
21 25 26 1 
22 5 6 1 
23 22 23 1 
24 22 27 2 
25 26 27 1 
26 24 26 2 
27 6 7 2 
28 7 8 1 
29 8 9 1 
30 4 5 1 
31 4 8 2 
32 13 14 1 
33 2 3 1 
34 2 13 2 
35 1 2 1 
36 1 15 2 
ITEM: TIMESTEP
90600
ITEM: NUMBER OF ENTRIES
36
ITEM: BOX BOUNDS pp pp pp
-1.0000000000000000e+01 1.0000000000000000e+01
-1.0000000000000000e+01 1.0000000000000000e+01
-1.0000000000000000e+01 1.0000000000000000e+01
ITEM: ENTRIES index c_bondedatomid1 c_bondedatomid2 c_btype
1 19 20 1 
2 29 30 1 
3 20 21 1 
4 28 29 1 
5 16 17 1 
6 16 29 2 
7 16 19 2 
8 21 29 2 
9 14 15 1 
10 10 11 1 
11 10 20 2 
12 10 30 2 
13 11 12 1 
14 11 28 2 
15 18 28 2 
16 18 20 2 
17 12 17 2 
18 12 21 2 
19 17 18 1 
20 23 24 1 
21 25 26 1 
22 5 6 1 
23 22 23 1 
24 22 27 2 
25 26 27 1 
26 24 26 2 
27 6 7 2 
28 7 8 1 
29 8 9 1 
30 4 5 1 
31 4 8 2 
32 13 14 1 
33 2 3 1 
34 2 13 2 
35 1 2 1 
36 1 15 2 
ITEM: TIMESTEP
90700
ITEM: NUMBER OF ENTRIES
36
ITEM: BOX BOUNDS pp pp pp
-1.0000000000000000e+01 1.0000000000000000e+01
-1.0000000000000000e+01 1.0000000000000000e+01
-1.0000000000000000e+01 1.0000000000000000e+01
ITEM: ENTRIES index c_bondedatomid1 c_bondedatomid2 c_btype
1 19 20 1 
2 29 30 1 
3 20 21 1 
4 28 29 1 
5 16 17 1 
6 16 29 2 
7 16 19 2 
8 21 29 2 
9 14 15 1 
10 10 11 1 
11 10 20 2 
12 10 30 2 
13 11 12 1 
14 11 28 2 
15 18 28 2 
16 18 20 2 
17 12 17 2 
18 12 21 2 
19 17 18 1 
20 23 24 1 
21 25 26 1 
22 5 6 1 
23 22 23 1 
24 22 27 2 
25 26 27 1 
26 24 26 2 
27 6 7 2 
28 7 8 1 
29 8 9 1 
30 4 5 1 
31 4 8 2 
32 13 14 1 
33 2 3 1 
34 2 13 2 
35 1 2 1 
36 1 15 2 
ITEM: TIMESTEP
90800
ITEM: NUMBER OF ENTRIES
36
ITEM: BOX BOUNDS pp pp pp
-1.0000000000000000e+01 1.0000000000000000e+01
-1.0000000000000000e+01 1.0000000000000000e+01
-1.0000000000000000e+01 1.0000000000000000e+01
ITEM: ENTRIES index c_bondedatomid1 c_bondedatomid2 c_btype
1 19 20 1 
2 29 30 1 
3 20 21 1 
4 28 29 1 
5 16 17 1 
6 16 29 2 
7 16 19 2 
8 21 29 2 
9 14 15 1 
10 10 11 1 
11 10 20 2 
12 10 30 2 
13 11 12 1 
14 11 28 2 
15 18 28 2 
16 18 20 2 
17 12 17 2 
18 12 21 2 
19 17 18 1 
20 23 24 1 
21 25 26 1 
22 5 6 1 
23 22 23 1 
24 22 27 2 
25 26 27 1 
26 24 26 2 
27 6 7 2 
28 7 8 1 
29 8 9 1 
30 4 5 1 
31 4 8 2 
32 13 14 1 
33 2 3 1 
34 2 13 2 
35 1 2 1 
36 1 15 2 
ITEM: TIMESTEP
90900
ITEM: NUMBER OF ENTRIES
36
ITEM: BOX BOUNDS pp pp pp
-1.0000000000000000e+01 1.0000000000000000e+01
-1.0000000000000000e+01 1.0000000000000000e+01
-1.0000000000000000e+01 1.0000000000000000e+01
ITEM: ENTRIES index c_bondedatomid1 c_bondedatomid2 c_btype
1 19 20 1 
2 29 30 1 
3 20 21 1 
4 28 29 1 
5 16 17 1 
6 16 29 2 
7 16 19 2 
8 21 29 2 
9 14 15 1 
10 10 11 1 
11 10 20 2 
12 10 30 2 
13 11 12 1 
14 11 28 2 
15 18 28 2 
16 18 20 2 
17 12 17 2 
18 12 21 2 
19 17 18 1 
20 23 24 1 
21 25 26 1 
22 5 6 1 
23 22 23 1 
24 22 27 2 
25 26 27 1 
26 24 26 2 
27 6 7 2 
28 7 8 1 
29 8 9 1 
30 4 5 1 
31 4 8 2 
32 13 14 1 
33 2 3 1 
34 2 13 2 
35 1 2 1 
36 1 15 2 
ITEM: TIMESTEP
91000
ITEM: NUMBER OF ENTRIES
36
ITEM: BOX BOUNDS pp pp pp
-1.0000000000000000e+01 1.0000000000000000e+01
-1.0000000000000000e+01 1.0000000000000000e+01
-1.0000000000000000e+01 1.0000000000000000e+01
ITEM: ENTRIES index c_bondedatomid1 c_bondedatomid2 c_btype
1 19 20 1 
2 29 30 1 
3 20 21 1 
4 28 29 1 
5 16 17 1 
6 16 29 2 
7 16 19 2 
8 21 29 2 
9 14 15 1 
10 10 11 1 
11 10 20 2 
12 10 30 2 
13 11 12 1 
14 11 28 2 
15 18 28 2 
16 18 20 2 
17 12 17 2 
18 12 21 2 
19 17 18 1 
20 23 24 1 
21 25 26 1 
22 5 6 1 
23 22 23 1 
24 22 27 2 
25 26 27 1 
26 24 26 2 
27 6 7 2 
28 7 8 1 
29 8 9 1 
30 4 5 1 
31 4 8 2 
32 13 14 1 
33 2 3 1 
34 2 13 2 
35 1 2 1 
36 1 15 2 
ITEM: TIMESTEP
91100
ITEM: NUMBER OF ENTRIES
36
ITEM: BOX BOUNDS pp pp pp
-1.0000000000000000e+01 1.0000000000000000e+01
-1.0000000000000000e+01 1.0000000000000000e+01
-1.0000000000000000e+01 1.0000000000000000e+01
ITEM: ENTRIES index c_bondedatomid1 c_bondedatomid2 c_btype
1 29 30 1 
2 10 11 1 
3 10 20 2 
4 10 30 2 
5 19 20 1 
6 20 21 1 
7 28 29 1 
8 21 29 2 
9 11 12 1 
10 11 28 2 
11 17 18 1 
12 16 17 1 
13 16 29 2 
14 16 19 2 
15 18 28 2 
16 18 20 2 
17 12 17 2 
18 12 21 2 
19 23 24 1 
20 25 26 1 
21 26 27 1 
22 24 26 2 
23 7 8 1 
24 22 23 1 
25 22 27 2 
26 5 6 1 
27 6 7 2 
28 8 9 1 
29 4 5 1 
30 4 8 2 
31 14 15 1 
32 2 3 1 
33 2 13 2 
34 1 2 1 
35 1 15 2 
36 13 14 1 
ITEM: TIMESTEP
91200
ITEM: NUMBER OF ENTRIES
36
ITEM: BOX BOUNDS pp pp pp
-1.0000000000000000e+01 1.0000000000000000e+01
-1.0000000000000000e+01 1.0000000000000000e+01
-1.0000000000000000e+01 1.0000000000000000e+01
ITEM: ENTRIES index c_bondedatomid1 c_bondedatomid2 c_btype
1 29 30 1 
2 10 11 1 
3 10 20 2 
4 10 30 2 
5 19 20 1 
6 20 21 1 
7 28 29 1 
8 21 29 2 
9 11 12 1 
10 11 28 2 
11 17 18 1 
12 16 17 1 
13 16 29 2 
14 16 19 2 
15 18 28 2 
16 18 20 2 
17 12 17 2 
18 12 21 2 
19 23 24 1 
20 25 26 1 
21 26 27 1 
22 24 26 2 
23 7 8 1 
24 22 23 1 
25 22 27 2 
26 5 6 1 
27 6 7 2 
28 8 9 1 
29 4 5 1 
30 4 8 2 
31 14 15 1 
32 2 3 1 
33 2 13 2 
34 1 2 1 
35 1 15 2 
36 13 14 1 
ITEM: TIMESTEP
91300
ITEM: NUMBER OF ENTRIES
36
ITEM: BOX BOUNDS pp pp pp
-1.0000000000000000e+01 1.0000000000000000e+01
-1.0000000000000000e+01 1.0000000000000000e+01
-1.0000000000000000e+01 1.0000000000000000e+01
ITEM: ENTRIES index c_bondedatomid1 c_bondedatomid2 c_btype
1 29 30 1 
2 10 11 1 
3 10 20 2 
4 10 30 2 
5 19 20 1 
6 20 21 1 
7 28 29 1 
8 21 29 2 
9 11 12 1 
10 11 28 2 
11 17 18 1 
12 16 17 1 
13 16 29 2 
14 16 19 2 
15 18 28 2 
16 18 20 2 
17 12 17 2 
18 12 21 2 
19 23 24 1 
20 25 26 1 
21 26 27 1 
22 24 26 2 
23 7 8 1 
24 22 23 1 
25 22 27 2 
26 5 6 1 
27 6 7 2 
28 8 9 1 
29 4 5 1 
30 4 8 2 
31 14 15 1 
32 2 3 1 
33 2 13 2 
34 1 2 1 
35 1 15 2 
36 13 14 1 
ITEM: TIMESTEP
91400
ITEM: NUMBER OF ENTRIES
36
ITEM: BOX BOUNDS pp pp pp
-1.0000000000000000e+01 1.0000000000000000e+01
-1.0000000000000000e+01 1.0000000000000000e+01
-1.0000000000000000e+01 1.0000000000000000e+01
ITEM: ENTRIES index c_bondedatomid1 c_bondedatomid2 c_btype
1 29 30 1 
2 10 11 1 
3 10 20 2 
4 10 30 2 
5 19 20 1 
6 20 21 1 
7 28 29 1 
8 21 29 2 
9 11 12 1 
10 11 28 2 
11 17 18 1 
12 16 17 1 
13 16 29 2 
14 16 19 2 
15 18 28 2 
16 18 20 2 
17 12 17 2 
18 12 21 2 
19 23 24 1 
20 25 26 1 
21 26 27 1 
22 24 26 2 
23 7 8 1 
24 22 23 1 
25 22 27 2 
26 5 6 1 
27 6 7 2 
28 8 9 1 
29 4 5 1 
30 4 8 2 
31 14 15 1 
32 2 3 1 
33 2 13 2 
34 1 2 1 
35 1 15 2 
36 13 14 1 
ITEM: TIMESTEP
91500
ITEM: NUMBER OF ENTRIES
36
ITEM: BOX BOUNDS pp pp pp
-1.0000000000000000e+01 1.0000000000000000e+01
-1.0000000000000000e+01 1.0000000000000000e+01
-1.0000000000000000e+01 1.0000000000000000e+01
ITEM: ENTRIES index c_bondedatomid1 c_bondedatomid2 c_btype
1 29 30 1 
2 10 11 1 
3 10 20 2 
4 10 30 2 
5 19 20 1 
6 20 21 1 
7 28 29 1 
8 21 29 2 
9 11 12 1 
10 11 28 2 
11 17 18 1 
12 16 17 1 
13 16 29 2 
14 16 19 2 
15 18 28 2 
16 18 20 2 
17 12 17 2 
18 12 21 2 
19 23 24 1 
20 25 26 1 
21 26 27 1 
22 24 26 2 
23 7 8 1 
24 22 23 1 
25 22 27 2 
26 5 6 1 
27 6 7 2 
28 8 9 1 
29 4 5 1 
30 4 8 2 
31 14 15 1 
32 2 3 1 
33 2 13 2 
34 1 2 1 
35 1 15 2 
36 13 14 1 
ITEM: TIMESTEP
91600
ITEM: NUMBER OF ENTRIES
36
ITEM: BOX BOUNDS pp pp pp
-1.0000000000000000e+01 1.0000000000000000e+01
-1.0000000000000000e+01 1.0000000000000000e+01
-1.0000000000000000e+01 1.0000000000000000e+01
ITEM: ENTRIES index c_bondedatomid1 c_bondedatomid2 c_btype
1 29 30 1 
2 10 11 1 
3 10 20 2 
4 10 30 2 
5 19 20 1 
6 20 21 1 
7 28 29 1 
8 21 29 2 
9 11 12 1 
10 11 28 2 
11 17 18 1 
12 16 17 1 
13 16 29 2 
14 16 19 2 
15 18 28 2 
16 18 20 2 
17 12 17 2 
18 12 21 2 
19 23 24 1 
20 25 26 1 
21 26 27 1 
22 24 26 2 
23 7 8 1 
24 22 23 1 
25 22 27 2 
26 5 6 1 
27 6 7 2 
28 8 9 1 
29 4 5 1 
30 4 8 2 
31 14 15 1 
32 2 3 1 
33 2 13 2 
34 1 2 1 
35 1 15 2 
36 13 14 1 
ITEM: TIMESTEP
91700
ITEM: NUMBER OF ENTRIES
36
ITEM: BOX BOUNDS pp pp pp
-1.0000000000000000e+01 1.0000000000000000e+01
-1.0000000000000000e+01 1.0000000000000000e+01
-1.0000000000000000e+01 1.0000000000000000e+01
ITEM: ENTRIES index c_bondedatomid1 c_bondedatomid2 c_btype
1 29 30 1 
2 10 11 1 
3 10 20 2 
4 10 30 2 
5 19 20 1 
6 20 21 1 
7 28 29 1 
8 21 29 2 
9 11 12 1 
10 11 28 2 
11 17 18 1 
12 16 17 1 
13 16 29 2 
14 16 19 2 
15 18 28 2 
16 18 20 2 
17 12 17 2 
18 12 21 2 
19 23 24 1 
20 25 26 1 
21 26 27 1 
22 24 26 2 
23 7 8 1 
24 22 23 1 
25 22 27 2 
26 5 6 1 
27 6 7 2 
28 8 9 1 
29 4 5 1 
30 4 8 2 
31 14 15 1 
32 2 3 1 
33 2 13 2 
34 1 2 1 
35 1 15 2 
36 13 14 1 
ITEM: TIMESTEP
91800
ITEM: NUMBER OF ENTRIES
36
ITEM: BOX BOUNDS pp pp pp
-1.0000000000000000e+01 1.0000000000000000e+01
-1.0000000000000000e+01 1.0000000000000000e+01
-1.0000000000000000e+01 1.0000000000000000e+01
ITEM: ENTRIES index c_bondedatomid1 c_bondedatomid2 c_btype
1 29 30 1 
2 10 11 1 
3 10 20 2 
4 10 30 2 
5 19 20 1 
6 20 21 1 
7 28 29 1 
8 21 29 2 
9 11 12 1 
10 11 28 2 
11 17 18 1 
12 16 17 1 
13 16 29 2 
14 16 19 2 
15 18 28 2 
16 18 20 2 
17 12 17 2 
18 12 21 2 
19 23 24 1 
20 25 26 1 
21 26 27 1 
22 24 26 2 
23 7 8 1 
24 22 23 1 
25 22 27 2 
26 5 6 1 
27 6 7 2 
28 8 9 1 
29 4 5 1 
30 4 8 2 
31 14 15 1 
32 2 3 1 
33 2 13 2 
34 1 2 1 
35 1 15 2 
36 13 14 1 
ITEM: TIMESTEP
91900
ITEM: NUMBER OF ENTRIES
36
ITEM: BOX BOUNDS pp pp pp
-1.0000000000000000e+01 1.0000000000000000e+01
-1.0000000000000000e+01 1.0000000000000000e+01
-1.0000000000000000e+01 1.0000000000000000e+01
ITEM: ENTRIES index c_bondedatomid1 c_bondedatomid2 c_btype
1 29 30 1 
2 10 11 1 
3 10 20 2 
4 10 30 2 
5 19 20 1 
6 20 21 1 
7 28 29 1 
8 21 29 2 
9 11 12 1 
10 11 28 2 
11 17 18 1 
12 16 17 1 
13 16 29 2 
14 16 19 2 
15 18 28 2 
16 18 20 2 
17 12 17 2 
18 12 21 2 
19 23 24 1 
20 25 26 1 
21 26 27 1 
22 24 26 2 
23 7 8 1 
24 22 23 1 
25 22 27 2 
26 5 6 1 
27 6 7 2 
28 8 9 1 
29 4 5 1 
30 4 8 2 
31 14 15 1 
32 2 3 1 
33 2 13 2 
34 1 2 1 
35 1 15 2 
36 13 14 1 
ITEM: TIMESTEP
92000
ITEM: NUMBER OF ENTRIES
36
ITEM: BOX BOUNDS pp pp pp
-1.0000000000000000e+01 1.0000000000000000e+01
-1.0000000000000000e+01 1.0000000000000000e+01
-1.0000000000000000e+01 1.0000000000000000e+01
ITEM: ENTRIES index c_bondedatomid1 c_bondedatomid2 c_btype
1 29 30 1 
2 10 11 1 
3 10 20 2 
4 10 30 2 
5 19 20 1 
6 20 21 1 
7 28 29 1 
8 21 29 2 
9 11 12 1 
10 11 28 2 
11 17 18 1 
12 16 17 1 
13 16 29 2 
14 16 19 2 
15 18 28 2 
16 18 20 2 
17 12 17 2 
18 12 21 2 
19 23 24 1 
20 25 26 1 
21 26 27 1 
22 24 26 2 
23 7 8 1 
24 22 23 1 
25 22 27 2 
26 5 6 1 
27 6 7 2 
28 8 9 1 
29 4 5 1 
30 4 8 2 
31 14 15 1 
32 2 3 1 
33 2 13 2 
34 1 2 1 
35 1 15 2 
36 13 14 1 
ITEM: TIMESTEP
92100
ITEM: NUMBER OF ENTRIES
36
ITEM: BOX BOUNDS pp pp pp
-1.0000000000000000e+01 1.0000000000000000e+01
-1.0000000000000000e+01 1.0000000000000000e+01
-1.0000000000000000e+01 1.0000000000000000e+01
ITEM: ENTRIES index c_bondedatomid1 c_bondedatomid2 c_btype
1 20 21 1 
2 21 29 2 
3 11 12 1 
4 11 28 2 
5 29 30 1 
6 10 11 1 
7 10 20 2 
8 10 30 2 
9 19 20 1 
10 17 18 1 
11 28 29 1 
12 12 17 2 
13 12 21 2 
14 16 17 1 
15 16 29 2 
16 16 19 2 
17 18 28 2 
18 18 20 2 
19 25 26 1 
20 26 27 1 
21 24 26 2 
22 23 24 1 
23 22 23 1 
24 22 27 2 
25 6 7 2 
26 8 9 1 
27 4 5 1 
28 4 8 2 
29 7 8 1 
30 5 6 1 
31 2 3 1 
32 2 13 2 
33 1 2 1 
34 1 15 2 
35 14 15 1 
36 13 14 1 
ITEM: TIMESTEP
92200
ITEM: NUMBER OF ENTRIES
36
ITEM: BOX BOUNDS pp pp pp
-1.0000000000000000e+01 1.0000000000000000e+01
-1.0000000000000000e+01 1.0000000000000000e+01
-1.0000000000000000e+01 1.0000000000000000e+01
ITEM: ENTRIES index c_bondedatomid1 c_bondedatomid2 c_btype
1 20 21 1 
2 21 29 2 
3 11 12 1 
4 11 28 2 
5 29 30 1 
6 10 11 1 
7 10 20 2 
8 10 30 2 
9 19 20 1 
10 17 18 1 
11 28 29 1 
12 12 17 2 
13 12 21 2 
14 16 17 1 
15 16 29 2 
16 16 19 2 
17 18 28 2 
18 18 20 2 
19 25 26 1 
20 26 27 1 
21 24 26 2 
22 23 24 1 
23 22 23 1 
24 22 27 2 
25 6 7 2 
26 8 9 1 
27 4 5 1 
28 4 8 2 
29 7 8 1 
30 5 6 1 
31 2 3 1 
32 2 13 2 
33 1 2 1 
34 1 15 2 
35 14 15 1 
36 13 14 1 
ITEM: TIMESTEP
92300
ITEM: NUMBER OF ENTRIES
36
ITEM: BOX BOUNDS pp pp pp
-1.0000000000000000e+01 1.0000000000000000e+01
-1.0000000000000000e+01 1.0000000000000000e+01
-1.0000000000000000e+01 1.0000000000000000e+01
ITEM: ENTRIES index c_bondedatomid1 c_bondedatomid2 c_btype
1 20 21 1 
2 21 29 2 
3 11 12 1 
4 11 28 2 
5 29 30 1 
6 10 11 1 
7 10 20 2 
8 10 30 2 
9 19 20 1 
10 17 18 1 
11 28 29 1 
12 12 17 2 
13 12 21 2 
14 16 17 1 
15 16 29 2 
16 16 19 2 
17 18 28 2 
18 18 20 2 
19 25 26 1 
20 26 27 1 
21 24 26 2 
22 23 24 1 
23 22 23 1 
24 22 27 2 
25 6 7 2 
26 8 9 1 
27 4 5 1 
28 4 8 2 
29 7 8 1 
30 5 6 1 
31 2 3 1 
32 2 13 2 
33 1 2 1 
34 1 15 2 
35 14 15 1 
36 13 14 1 
ITEM: TIMESTEP
92400
ITEM: NUMBER OF ENTRIES
36
ITEM: BOX BOUNDS pp pp pp
-1.0000000000000000e+01 1.0000000000000000e+01
-1.0000000000000000e+01 1.0000000000000000e+01
-1.0000000000000000e+01 1.0000000000000000e+01
ITEM: ENTRIES index c_bondedatomid1 c_bondedatomid2 c_btype
1 20 21 1 
2 21 29 2 
3 11 12 1 
4 11 28 2 
5 29 30 1 
6 10 11 1 
7 10 20 2 
8 10 30 2 
9 19 20 1 
10 17 18 1 
11 28 29 1 
12 12 17 2 
13 12 21 2 
14 16 17 1 
15 16 29 2 
16 16 19 2 
17 18 28 2 
18 18 20 2 
19 25 26 1 
20 26 27 1 
21 24 26 2 
22 23 24 1 
23 22 23 1 
24 22 27 2 
25 6 7 2 
26 8 9 1 
27 4 5 1 
28 4 8 2 
29 7 8 1 
30 5 6 1 
31 2 3 1 
32 2 13 2 
33 1 2 1 
34 1 15 2 
35 14 15 1 
36 13 14 1 
ITEM: TIMESTEP
92500
ITEM: NUMBER OF ENTRIES
36
ITEM: BOX BOUNDS pp pp pp
-1.0000000000000000e+01 1.0000000000000000e+01
-1.0000000000000000e+01 1.0000000000000000e+01
-1.0000000000000000e+01 1.0000000000000000e+01
ITEM: ENTRIES index c_bondedatomid1 c_bondedatomid2 c_btype
1 20 21 1 
2 21 29 2 
3 11 12 1 
4 11 28 2 
5 29 30 1 
6 10 11 1 
7 10 20 2 
8 10 30 2 
9 19 20 1 
10 17 18 1 
11 28 29 1 
12 12 17 2 
13 12 21 2 
14 16 17 1 
15 16 29 2 
16 16 19 2 
17 18 28 2 
18 18 20 2 
19 25 26 1 
20 26 27 1 
21 24 26 2 
22 23 24 1 
23 22 23 1 
24 22 27 2 
25 6 7 2 
26 8 9 1 
27 4 5 1 
28 4 8 2 
29 7 8 1 
30 5 6 1 
31 2 3 1 
32 2 13 2 
33 1 2 1 
34 1 15 2 
35 14 15 1 
36 13 14 1 
ITEM: TIMESTEP
92600
ITEM: NUMBER OF ENTRIES
36
ITEM: BOX BOUNDS pp pp pp
-1.0000000000000000e+01 1.0000000000000000e+01
-1.0000000000000000e+01 1.0000000000000000e+01
-1.0000000000000000e+01 1.0000000000000000e+01
ITEM: ENTRIES index c_bondedatomid1 c_bondedatomid2 c_btype
1 20 21 1 
2 21 29 2 
3 11 12 1 
4 11 28 2 
5 29 30 1 
6 10 11 1 
7 10 20 2 
8 10 30 2 
9 19 20 1 
10 17 18 1 
11 28 29 1 
12 12 17 2 
13 12 21 2 
14 16 17 1 
15 16 29 2 
16 16 19 2 
17 18 28 2 
18 18 20 2 
19 25 26 1 
20 26 27 1 
21 24 26 2 
22 23 24 1 
23 22 23 1 
24 22 27 2 
25 6 7 2 
26 8 9 1 
27 4 5 1 
28 4 8 2 
29 7 8 1 
30 5 6 1 
31 2 3 1 
32 2 13 2 
33 1 2 1 
34 1 15 2 
35 14 15 1 
36 13 14 1 
ITEM: TIMESTEP
92700
ITEM: NUMBER OF ENTRIES
36
ITEM: BOX BOUNDS pp pp pp
-1.0000000000000000e+01 1.0000000000000000e+01
-1.0000000000000000e+01 1.0000000000000000e+01
-1.0000000000000000e+01 1.0000000000000000e+01
ITEM: ENTRIES index c_bondedatomid1 c_bondedatomid2 c_btype
1 20 21 1 
2 21 29 2 
3 11 12 1 
4 11 28 2 
5 29 30 1 
6 10 11 1 
7 10 20 2 
8 10 30 2 
9 19 20 1 
10 17 18 1 
11 28 29 1 
12 12 17 2 
13 12 21 2 
14 16 17 1 
15 16 29 2 
16 16 19 2 
17 18 28 2 
18 18 20 2 
19 25 26 1 
20 26 27 1 
21 24 26 2 
22 23 24 1 
23 22 23 1 
24 22 27 2 
25 6 7 2 
26 8 9 1 
27 4 5 1 
28 4 8 2 
29 7 8 1 
30 5 6 1 
31 2 3 1 
32 2 13 2 
33 1 2 1 
34 1 15 2 
35 14 15 1 
36 13 14 1 
ITEM: TIMESTEP
92800
ITEM: NUMBER OF ENTRIES
36
ITEM: BOX BOUNDS pp pp pp
-1.0000000000000000e+01 1.0000000000000000e+01
-1.0000000000000000e+01 1.0000000000000000e+01
-1.0000000000000000e+01 1.0000000000000000e+01
ITEM: ENTRIES index c_bondedatomid1 c_bondedatomid2 c_btype
1 20 21 1 
2 21 29 2 
3 11 12 1 
4 11 28 2 
5 29 30 1 
6 10 11 1 
7 10 20 2 
8 10 30 2 
9 19 20 1 
10 17 18 1 
11 28 29 1 
12 12 17 2 
13 12 21 2 
14 16 17 1 
15 16 29 2 
16 16 19 2 
17 18 28 2 
18 18 20 2 
19 25 26 1 
20 26 27 1 
21 24 26 2 
22 23 24 1 
23 22 23 1 
24 22 27 2 
25 6 7 2 
26 8 9 1 
27 4 5 1 
28 4 8 2 
29 7 8 1 
30 5 6 1 
31 2 3 1 
32 2 13 2 
33 1 2 1 
34 1 15 2 
35 14 15 1 
36 13 14 1 
ITEM: TIMESTEP
92900
ITEM: NUMBER OF ENTRIES
36
ITEM: BOX BOUNDS pp pp pp
-1.0000000000000000e+01 1.0000000000000000e+01
-1.0000000000000000e+01 1.0000000000000000e+01
-1.0000000000000000e+01 1.0000000000000000e+01
ITEM: ENTRIES index c_bondedatomid1 c_bondedatomid2 c_btype
1 20 21 1 
2 21 29 2 
3 11 12 1 
4 11 28 2 
5 29 30 1 
6 10 11 1 
7 10 20 2 
8 10 30 2 
9 19 20 1 
10 17 18 1 
11 28 29 1 
12 12 17 2 
13 12 21 2 
14 16 17 1 
15 16 29 2 
16 16 19 2 
17 18 28 2 
18 18 20 2 
19 25 26 1 
20 26 27 1 
21 24 26 2 
22 23 24 1 
23 22 23 1 
24 22 27 2 
25 6 7 2 
26 8 9 1 
27 4 5 1 
28 4 8 2 
29 7 8 1 
30 5 6 1 
31 2 3 1 
32 2 13 2 
33 1 2 1 
34 1 15 2 
35 14 15 1 
36 13 14 1 
ITEM: TIMESTEP
93000
ITEM: NUMBER OF ENTRIES
36
ITEM: BOX BOUNDS pp pp pp
-1.0000000000000000e+01 1.0000000000000000e+01
-1.0000000000000000e+01 1.0000000000000000e+01
-1.0000000000000000e+01 1.0000000000000000e+01
ITEM: ENTRIES index c_bondedatomid1 c_bondedatomid2 c_btype
1 20 21 1 
2 21 29 2 
3 11 12 1 
4 11 28 2 
5 29 30 1 
6 10 11 1 
7 10 20 2 
8 10 30 2 
9 19 20 1 
10 17 18 1 
11 28 29 1 
12 12 17 2 
13 12 21 2 
14 16 17 1 
15 16 29 2 
16 16 19 2 
17 18 28 2 
18 18 20 2 
19 25 26 1 
20 26 27 1 
21 24 26 2 
22 23 24 1 
23 22 23 1 
24 22 27 2 
25 6 7 2 
26 8 9 1 
27 4 5 1 
28 4 8 2 
29 7 8 1 
30 5 6 1 
31 2 3 1 
32 2 13 2 
33 1 2 1 
34 1 15 2 
35 14 15 1 
36 13 14 1 
ITEM: TIMESTEP
93100
ITEM: NUMBER OF ENTRIES
36
ITEM: BOX BOUNDS pp pp pp
-1.0000000000000000e+01 1.0000000000000000e+01
-1.0000000000000000e+01 1.0000000000000000e+01
-1.0000000000000000e+01 1.0000000000000000e+01
ITEM: ENTRIES index c_bondedatomid1 c_bondedatomid2 c_btype
1 20 21 1 
2 21 29 2 
3 11 12 1 
4 11 28 2 
5 29 30 1 
6 10 11 1 
7 10 20 2 
8 10 30 2 
9 19 20 1 
10 17 18 1 
11 28 29 1 
12 12 17 2 
13 12 21 2 
14 16 17 1 
15 16 29 2 
16 16 19 2 
17 18 28 2 
18 18 20 2 
19 25 26 1 
20 26 27 1 
21 24 26 2 
22 23 24 1 
23 22 23 1 
24 22 27 2 
25 6 7 2 
26 8 9 1 
27 4 5 1 
28 4 8 2 
29 7 8 1 
30 5 6 1 
31 2 3 1 
32 2 13 2 
33 1 2 1 
34 1 15 2 
35 14 15 1 
36 13 14 1 
ITEM: TIMESTEP
93200
ITEM: NUMBER OF ENTRIES
36
ITEM: BOX BOUNDS pp pp pp
-1.0000000000000000e+01 1.0000000000000000e+01
-1.0000000000000000e+01 1.0000000000000000e+01
-1.0000000000000000e+01 1.0000000000000000e+01
ITEM: ENTRIES index c_bondedatomid1 c_bondedatomid2 c_btype
1 20 21 1 
2 11 12 1 
3 11 28 2 
4 29 30 1 
5 17 18 1 
6 12 17 2 
7 12 21 2 
8 10 11 1 
9 10 20 2 
10 10 30 2 
11 19 20 1 
12 18 28 2 
13 18 20 2 
14 14 15 1 
15 21 29 2 
16 28 29 1 
17 16 17 1 
18 16 29 2 
19 16 19 2 
20 24 26 2 
21 22 23 1 
22 22 27 2 
23 8 9 1 
24 7 8 1 
25 25 26 1 
26 26 27 1 
27 23 24 1 
28 6 7 2 
29 4 5 1 
30 4 8 2 
31 5 6 1 
32 2 3 1 
33 2 13 2 
34 1 2 1 
35 1 15 2 
36 13 14 1 
ITEM: TIMESTEP
93300
ITEM: NUMBER OF ENTRIES
36
ITEM: BOX BOUNDS pp pp pp
-1.0000000000000000e+01 1.0000000000000000e+01
-1.0000000000000000e+01 1.0000000000000000e+01
-1.0000000000000000e+01 1.0000000000000000e+01
ITEM: ENTRIES index c_bondedatomid1 c_bondedatomid2 c_btype
1 20 21 1 
2 11 12 1 
3 11 28 2 
4 29 30 1 
5 17 18 1 
6 12 17 2 
7 12 21 2 
8 10 11 1 
9 10 20 2 
10 10 30 2 
11 19 20 1 
12 18 28 2 
13 18 20 2 
14 14 15 1 
15 21 29 2 
16 28 29 1 
17 16 17 1 
18 16 29 2 
19 16 19 2 
20 24 26 2 
21 22 23 1 
22 22 27 2 
23 8 9 1 
24 7 8 1 
25 25 26 1 
26 26 27 1 
27 23 24 1 
28 6 7 2 
29 4 5 1 
30 4 8 2 
31 5 6 1 
32 2 3 1 
33 2 13 2 
34 1 2 1 
35 1 15 2 
36 13 14 1 
ITEM: TIMESTEP
93400
ITEM: NUMBER OF ENTRIES
36
ITEM: BOX BOUNDS pp pp pp
-1.0000000000000000e+01 1.0000000000000000e+01
-1.0000000000000000e+01 1.0000000000000000e+01
-1.0000000000000000e+01 1.0000000000000000e+01
ITEM: ENTRIES index c_bondedatomid1 c_bondedatomid2 c_btype
1 20 21 1 
2 11 12 1 
3 11 28 2 
4 29 30 1 
5 17 18 1 
6 12 17 2 
7 12 21 2 
8 10 11 1 
9 10 20 2 
10 10 30 2 
11 19 20 1 
12 18 28 2 
13 18 20 2 
14 14 15 1 
15 21 29 2 
16 28 29 1 
17 16 17 1 
18 16 29 2 
19 16 19 2 
20 24 26 2 
21 22 23 1 
22 22 27 2 
23 8 9 1 
24 7 8 1 
25 25 26 1 
26 26 27 1 
27 23 24 1 
28 6 7 2 
29 4 5 1 
30 4 8 2 
31 5 6 1 
32 2 3 1 
33 2 13 2 
34 1 2 1 
35 1 15 2 
36 13 14 1 
ITEM: TIMESTEP
93500
ITEM: NUMBER OF ENTRIES
36
ITEM: BOX BOUNDS pp pp pp
-1.0000000000000000e+01 1.0000000000000000e+01
-1.0000000000000000e+01 1.0000000000000000e+01
-1.0000000000000000e+01 1.0000000000000000e+01
ITEM: ENTRIES index c_bondedatomid1 c_bondedatomid2 c_btype
1 20 21 1 
2 11 12 1 
3 11 28 2 
4 29 30 1 
5 17 18 1 
6 12 17 2 
7 12 21 2 
8 10 11 1 
9 10 20 2 
10 10 30 2 
11 19 20 1 
12 18 28 2 
13 18 20 2 
14 14 15 1 
15 21 29 2 
16 28 29 1 
17 16 17 1 
18 16 29 2 
19 16 19 2 
20 24 26 2 
21 22 23 1 
22 22 27 2 
23 8 9 1 
24 7 8 1 
25 25 26 1 
26 26 27 1 
27 23 24 1 
28 6 7 2 
29 4 5 1 
30 4 8 2 
31 5 6 1 
32 2 3 1 
33 2 13 2 
34 1 2 1 
35 1 15 2 
36 13 14 1 
ITEM: TIMESTEP
93600
ITEM: NUMBER OF ENTRIES
36
ITEM: BOX BOUNDS pp pp pp
-1.0000000000000000e+01 1.0000000000000000e+01
-1.0000000000000000e+01 1.0000000000000000e+01
-1.0000000000000000e+01 1.0000000000000000e+01
ITEM: ENTRIES index c_bondedatomid1 c_bondedatomid2 c_btype
1 20 21 1 
2 11 12 1 
3 11 28 2 
4 29 30 1 
5 17 18 1 
6 12 17 2 
7 12 21 2 
8 10 11 1 
9 10 20 2 
10 10 30 2 
11 19 20 1 
12 18 28 2 
13 18 20 2 
14 14 15 1 
15 21 29 2 
16 28 29 1 
17 16 17 1 
18 16 29 2 
19 16 19 2 
20 24 26 2 
21 22 23 1 
22 22 27 2 
23 8 9 1 
24 7 8 1 
25 25 26 1 
26 26 27 1 
27 23 24 1 
28 6 7 2 
29 4 5 1 
30 4 8 2 
31 5 6 1 
32 2 3 1 
33 2 13 2 
34 1 2 1 
35 1 15 2 
36 13 14 1 
ITEM: TIMESTEP
93700
ITEM: NUMBER OF ENTRIES
36
ITEM: BOX BOUNDS pp pp pp
-1.0000000000000000e+01 1.0000000000000000e+01
-1.0000000000000000e+01 1.0000000000000000e+01
-1.0000000000000000e+01 1.0000000000000000e+01
ITEM: ENTRIES index c_bondedatomid1 c_bondedatomid2 c_btype
1 20 21 1 
2 11 12 1 
3 11 28 2 
4 29 30 1 
5 17 18 1 
6 12 17 2 
7 12 21 2 
8 10 11 1 
9 10 20 2 
10 10 30 2 
11 19 20 1 
12 18 28 2 
13 18 20 2 
14 14 15 1 
15 21 29 2 
16 28 29 1 
17 16 17 1 
18 16 29 2 
19 16 19 2 
20 24 26 2 
21 22 23 1 
22 22 27 2 
23 8 9 1 
24 7 8 1 
25 25 26 1 
26 26 27 1 
27 23 24 1 
28 6 7 2 
29 4 5 1 
30 4 8 2 
31 5 6 1 
32 2 3 1 
33 2 13 2 
34 1 2 1 
35 1 15 2 
36 13 14 1 
ITEM: TIMESTEP
93800
ITEM: NUMBER OF ENTRIES
36
ITEM: BOX BOUNDS pp pp pp
-1.0000000000000000e+01 1.0000000000000000e+01
-1.0000000000000000e+01 1.0000000000000000e+01
-1.0000000000000000e+01 1.0000000000000000e+01
ITEM: ENTRIES index c_bondedatomid1 c_bondedatomid2 c_btype
1 20 21 1 
2 11 12 1 
3 11 28 2 
4 29 30 1 
5 17 18 1 
6 12 17 2 
7 12 21 2 
8 10 11 1 
9 10 20 2 
10 10 30 2 
11 19 20 1 
12 18 28 2 
13 18 20 2 
14 14 15 1 
15 21 29 2 
16 28 29 1 
17 16 17 1 
18 16 29 2 
19 16 19 2 
20 24 26 2 
21 22 23 1 
22 22 27 2 
23 8 9 1 
24 7 8 1 
25 25 26 1 
26 26 27 1 
27 23 24 1 
28 6 7 2 
29 4 5 1 
30 4 8 2 
31 5 6 1 
32 2 3 1 
33 2 13 2 
34 1 2 1 
35 1 15 2 
36 13 14 1 
ITEM: TIMESTEP
93900
ITEM: NUMBER OF ENTRIES
36
ITEM: BOX BOUNDS pp pp pp
-1.0000000000000000e+01 1.0000000000000000e+01
-1.0000000000000000e+01 1.0000000000000000e+01
-1.0000000000000000e+01 1.0000000000000000e+01
ITEM: ENTRIES index c_bondedatomid1 c_bondedatomid2 c_btype
1 20 21 1 
2 11 12 1 
3 11 28 2 
4 29 30 1 
5 17 18 1 
6 12 17 2 
7 12 21 2 
8 10 11 1 
9 10 20 2 
10 10 30 2 
11 19 20 1 
12 18 28 2 
13 18 20 2 
14 14 15 1 
15 21 29 2 
16 28 29 1 
17 16 17 1 
18 16 29 2 
19 16 19 2 
20 24 26 2 
21 22 23 1 
22 22 27 2 
23 8 9 1 
24 7 8 1 
25 25 26 1 
26 26 27 1 
27 23 24 1 
28 6 7 2 
29 4 5 1 
30 4 8 2 
31 5 6 1 
32 2 3 1 
33 2 13 2 
34 1 2 1 
35 1 15 2 
36 13 14 1 
ITEM: TIMESTEP
94000
ITEM: NUMBER OF ENTRIES
36
ITEM: BOX BOUNDS pp pp pp
-1.0000000000000000e+01 1.0000000000000000e+01
-1.0000000000000000e+01 1.0000000000000000e+01
-1.0000000000000000e+01 1.0000000000000000e+01
ITEM: ENTRIES index c_bondedatomid1 c_bondedatomid2 c_btype
1 20 21 1 
2 11 12 1 
3 11 28 2 
4 29 30 1 
5 17 18 1 
6 12 17 2 
7 12 21 2 
8 10 11 1 
9 10 20 2 
10 10 30 2 
11 19 20 1 
12 18 28 2 
13 18 20 2 
14 14 15 1 
15 21 29 2 
16 28 29 1 
17 16 17 1 
18 16 29 2 
19 16 19 2 
20 24 26 2 
21 22 23 1 
22 22 27 2 
23 8 9 1 
24 7 8 1 
25 25 26 1 
26 26 27 1 
27 23 24 1 
28 6 7 2 
29 4 5 1 
30 4 8 2 
31 5 6 1 
32 2 3 1 
33 2 13 2 
34 1 2 1 
35 1 15 2 
36 13 14 1 
ITEM: TIMESTEP
94100
ITEM: NUMBER OF ENTRIES
36
ITEM: BOX BOUNDS pp pp pp
-1.0000000000000000e+01 1.0000000000000000e+01
-1.0000000000000000e+01 1.0000000000000000e+01
-1.0000000000000000e+01 1.0000000000000000e+01
ITEM: ENTRIES index c_bondedatomid1 c_bondedatomid2 c_btype
1 20 21 1 
2 11 12 1 
3 11 28 2 
4 29 30 1 
5 17 18 1 
6 12 17 2 
7 12 21 2 
8 10 11 1 
9 10 20 2 
10 10 30 2 
11 19 20 1 
12 18 28 2 
13 18 20 2 
14 14 15 1 
15 21 29 2 
16 28 29 1 
17 16 17 1 
18 16 29 2 
19 16 19 2 
20 24 26 2 
21 22 23 1 
22 22 27 2 
23 8 9 1 
24 7 8 1 
25 25 26 1 
26 26 27 1 
27 23 24 1 
28 6 7 2 
29 4 5 1 
30 4 8 2 
31 5 6 1 
32 2 3 1 
33 2 13 2 
34 1 2 1 
35 1 15 2 
36 13 14 1 
ITEM: TIMESTEP
94200
ITEM: NUMBER OF ENTRIES
36
ITEM: BOX BOUNDS pp pp pp
-1.0000000000000000e+01 1.0000000000000000e+01
-1.0000000000000000e+01 1.0000000000000000e+01
-1.0000000000000000e+01 1.0000000000000000e+01
ITEM: ENTRIES index c_bondedatomid1 c_bondedatomid2 c_btype
1 20 21 1 
2 12 17 2 
3 12 21 2 
4 10 11 1 
5 10 20 2 
6 10 30 2 
7 19 20 1 
8 21 29 2 
9 28 29 1 
10 13 14 1 
11 11 12 1 
12 11 28 2 
13 17 18 1 
14 29 30 1 
15 18 28 2 
16 18 20 2 
17 16 17 1 
18 16 29 2 
19 16 19 2 
20 24 26 2 
21 23 24 1 
22 7 8 1 
23 6 7 2 
24 4 5 1 
25 4 8 2 
26 22 23 1 
27 22 27 2 
28 25 26 1 
29 26 27 1 
30 8 9 1 
31 5 6 1 
32 14 15 1 
33 2 3 1 
34 2 13 2 
35 1 2 1 
36 1 15 2 
ITEM: TIMESTEP
94300
ITEM: NUMBER OF ENTRIES
36
ITEM: BOX BOUNDS pp pp pp
-1.0000000000000000e+01 1.0000000000000000e+01
-1.0000000000000000e+01 1.0000000000000000e+01
-1.0000000000000000e+01 1.0000000000000000e+01
ITEM: ENTRIES index c_bondedatomid1 c_bondedatomid2 c_btype
1 20 21 1 
2 12 17 2 
3 12 21 2 
4 10 11 1 
5 10 20 2 
6 10 30 2 
7 19 20 1 
8 21 29 2 
9 28 29 1 
10 13 14 1 
11 11 12 1 
12 11 28 2 
13 17 18 1 
14 29 30 1 
15 18 28 2 
16 18 20 2 
17 16 17 1 
18 16 29 2 
19 16 19 2 
20 24 26 2 
21 23 24 1 
22 7 8 1 
23 6 7 2 
24 4 5 1 
25 4 8 2 
26 22 23 1 
27 22 27 2 
28 25 26 1 
29 26 27 1 
30 8 9 1 
31 5 6 1 
32 14 15 1 
33 2 3 1 
34 2 13 2 
35 1 2 1 
36 1 15 2 
ITEM: TIMESTEP
94400
ITEM: NUMBER OF ENTRIES
36
ITEM: BOX BOUNDS pp pp pp
-1.0000000000000000e+01 1.0000000000000000e+01
-1.0000000000000000e+01 1.0000000000000000e+01
-1.0000000000000000e+01 1.0000000000000000e+01
ITEM: ENTRIES index c_bondedatomid1 c_bondedatomid2 c_btype
1 20 21 1 
2 12 17 2 
3 12 21 2 
4 10 11 1 
5 10 20 2 
6 10 30 2 
7 19 20 1 
8 21 29 2 
9 28 29 1 
10 13 14 1 
11 11 12 1 
12 11 28 2 
13 17 18 1 
14 29 30 1 
15 18 28 2 
16 18 20 2 
17 16 17 1 
18 16 29 2 
19 16 19 2 
20 24 26 2 
21 23 24 1 
22 7 8 1 
23 6 7 2 
24 4 5 1 
25 4 8 2 
26 22 23 1 
27 22 27 2 
28 25 26 1 
29 26 27 1 
30 8 9 1 
31 5 6 1 
32 14 15 1 
33 2 3 1 
34 2 13 2 
35 1 2 1 
36 1 15 2 
ITEM: TIMESTEP
94500
ITEM: NUMBER OF ENTRIES
36
ITEM: BOX BOUNDS pp pp pp
-1.0000000000000000e+01 1.0000000000000000e+01
-1.0000000000000000e+01 1.0000000000000000e+01
-1.0000000000000000e+01 1.0000000000000000e+01
ITEM: ENTRIES index c_bondedatomid1 c_bondedatomid2 c_btype
1 20 21 1 
2 12 17 2 
3 12 21 2 
4 10 11 1 
5 10 20 2 
6 10 30 2 
7 19 20 1 
8 21 29 2 
9 28 29 1 
10 13 14 1 
11 11 12 1 
12 11 28 2 
13 17 18 1 
14 29 30 1 
15 18 28 2 
16 18 20 2 
17 16 17 1 
18 16 29 2 
19 16 19 2 
20 24 26 2 
21 23 24 1 
22 7 8 1 
23 6 7 2 
24 4 5 1 
25 4 8 2 
26 22 23 1 
27 22 27 2 
28 25 26 1 
29 26 27 1 
30 8 9 1 
31 5 6 1 
32 14 15 1 
33 2 3 1 
34 2 13 2 
35 1 2 1 
36 1 15 2 
ITEM: TIMESTEP
94600
ITEM: NUMBER OF ENTRIES
36
ITEM: BOX BOUNDS pp pp pp
-1.0000000000000000e+01 1.0000000000000000e+01
-1.0000000000000000e+01 1.0000000000000000e+01
-1.0000000000000000e+01 1.0000000000000000e+01
ITEM: ENTRIES index c_bondedatomid1 c_bondedatomid2 c_btype
1 20 21 1 
2 12 17 2 
3 12 21 2 
4 10 11 1 
5 10 20 2 
6 10 30 2 
7 19 20 1 
8 21 29 2 
9 28 29 1 
10 13 14 1 
11 11 12 1 
12 11 28 2 
13 17 18 1 
14 29 30 1 
15 18 28 2 
16 18 20 2 
17 16 17 1 
18 16 29 2 
19 16 19 2 
20 24 26 2 
21 23 24 1 
22 7 8 1 
23 6 7 2 
24 4 5 1 
25 4 8 2 
26 22 23 1 
27 22 27 2 
28 25 26 1 
29 26 27 1 
30 8 9 1 
31 5 6 1 
32 14 15 1 
33 2 3 1 
34 2 13 2 
35 1 2 1 
36 1 15 2 
ITEM: TIMESTEP
94700
ITEM: NUMBER OF ENTRIES
36
ITEM: BOX BOUNDS pp pp pp
-1.0000000000000000e+01 1.0000000000000000e+01
-1.0000000000000000e+01 1.0000000000000000e+01
-1.0000000000000000e+01 1.0000000000000000e+01
ITEM: ENTRIES index c_bondedatomid1 c_bondedatomid2 c_btype
1 20 21 1 
2 12 17 2 
3 12 21 2 
4 10 11 1 
5 10 20 2 
6 10 30 2 
7 19 20 1 
8 21 29 2 
9 28 29 1 
10 13 14 1 
11 11 12 1 
12 11 28 2 
13 17 18 1 
14 29 30 1 
15 18 28 2 
16 18 20 2 
17 16 17 1 
18 16 29 2 
19 16 19 2 
20 24 26 2 
21 23 24 1 
22 7 8 1 
23 6 7 2 
24 4 5 1 
25 4 8 2 
26 22 23 1 
27 22 27 2 
28 25 26 1 
29 26 27 1 
30 8 9 1 
31 5 6 1 
32 14 15 1 
33 2 3 1 
34 2 13 2 
35 1 2 1 
36 1 15 2 
ITEM: TIMESTEP
94800
ITEM: NUMBER OF ENTRIES
36
ITEM: BOX BOUNDS pp pp pp
-1.0000000000000000e+01 1.0000000000000000e+01
-1.0000000000000000e+01 1.0000000000000000e+01
-1.0000000000000000e+01 1.0000000000000000e+01
ITEM: ENTRIES index c_bondedatomid1 c_bondedatomid2 c_btype
1 20 21 1 
2 12 17 2 
3 12 21 2 
4 10 11 1 
5 10 20 2 
6 10 30 2 
7 19 20 1 
8 21 29 2 
9 28 29 1 
10 13 14 1 
11 11 12 1 
12 11 28 2 
13 17 18 1 
14 29 30 1 
15 18 28 2 
16 18 20 2 
17 16 17 1 
18 16 29 2 
19 16 19 2 
20 24 26 2 
21 23 24 1 
22 7 8 1 
23 6 7 2 
24 4 5 1 
25 4 8 2 
26 22 23 1 
27 22 27 2 
28 25 26 1 
29 26 27 1 
30 8 9 1 
31 5 6 1 
32 14 15 1 
33 2 3 1 
34 2 13 2 
35 1 2 1 
36 1 15 2 
ITEM: TIMESTEP
94900
ITEM: NUMBER OF ENTRIES
36
ITEM: BOX BOUNDS pp pp pp
-1.0000000000000000e+01 1.0000000000000000e+01
-1.0000000000000000e+01 1.0000000000000000e+01
-1.0000000000000000e+01 1.0000000000000000e+01
ITEM: ENTRIES index c_bondedatomid1 c_bondedatomid2 c_btype
1 20 21 1 
2 12 17 2 
3 12 21 2 
4 10 11 1 
5 10 20 2 
6 10 30 2 
7 19 20 1 
8 21 29 2 
9 28 29 1 
10 13 14 1 
11 11 12 1 
12 11 28 2 
13 17 18 1 
14 29 30 1 
15 18 28 2 
16 18 20 2 
17 16 17 1 
18 16 29 2 
19 16 19 2 
20 24 26 2 
21 23 24 1 
22 7 8 1 
23 6 7 2 
24 4 5 1 
25 4 8 2 
26 22 23 1 
27 22 27 2 
28 25 26 1 
29 26 27 1 
30 8 9 1 
31 5 6 1 
32 14 15 1 
33 2 3 1 
34 2 13 2 
35 1 2 1 
36 1 15 2 
ITEM: TIMESTEP
95000
ITEM: NUMBER OF ENTRIES
36
ITEM: BOX BOUNDS pp pp pp
-1.0000000000000000e+01 1.0000000000000000e+01
-1.0000000000000000e+01 1.0000000000000000e+01
-1.0000000000000000e+01 1.0000000000000000e+01
ITEM: ENTRIES index c_bondedatomid1 c_bondedatomid2 c_btype
1 20 21 1 
2 12 17 2 
3 12 21 2 
4 10 11 1 
5 10 20 2 
6 10 30 2 
7 19 20 1 
8 21 29 2 
9 28 29 1 
10 13 14 1 
11 11 12 1 
12 11 28 2 
13 17 18 1 
14 29 30 1 
15 18 28 2 
16 18 20 2 
17 16 17 1 
18 16 29 2 
19 16 19 2 
20 24 26 2 
21 23 24 1 
22 7 8 1 
23 6 7 2 
24 4 5 1 
25 4 8 2 
26 22 23 1 
27 22 27 2 
28 25 26 1 
29 26 27 1 
30 8 9 1 
31 5 6 1 
32 14 15 1 
33 2 3 1 
34 2 13 2 
35 1 2 1 
36 1 15 2 
ITEM: TIMESTEP
95100
ITEM: NUMBER OF ENTRIES
36
ITEM: BOX BOUNDS pp pp pp
-1.0000000000000000e+01 1.0000000000000000e+01
-1.0000000000000000e+01 1.0000000000000000e+01
-1.0000000000000000e+01 1.0000000000000000e+01
ITEM: ENTRIES index c_bondedatomid1 c_bondedatomid2 c_btype
1 20 21 1 
2 12 17 2 
3 12 21 2 
4 10 11 1 
5 10 20 2 
6 10 30 2 
7 19 20 1 
8 21 29 2 
9 28 29 1 
10 13 14 1 
11 11 12 1 
12 11 28 2 
13 17 18 1 
14 29 30 1 
15 18 28 2 
16 18 20 2 
17 16 17 1 
18 16 29 2 
19 16 19 2 
20 24 26 2 
21 23 24 1 
22 7 8 1 
23 6 7 2 
24 4 5 1 
25 4 8 2 
26 22 23 1 
27 22 27 2 
28 25 26 1 
29 26 27 1 
30 8 9 1 
31 5 6 1 
32 14 15 1 
33 2 3 1 
34 2 13 2 
35 1 2 1 
36 1 15 2 
ITEM: TIMESTEP
95200
ITEM: NUMBER OF ENTRIES
36
ITEM: BOX BOUNDS pp pp pp
-1.0000000000000000e+01 1.0000000000000000e+01
-1.0000000000000000e+01 1.0000000000000000e+01
-1.0000000000000000e+01 1.0000000000000000e+01
ITEM: ENTRIES index c_bondedatomid1 c_bondedatomid2 c_btype
1 20 21 1 
2 12 17 2 
3 12 21 2 
4 10 11 1 
5 10 20 2 
6 10 30 2 
7 19 20 1 
8 21 29 2 
9 28 29 1 
10 13 14 1 
11 11 12 1 
12 11 28 2 
13 17 18 1 
14 29 30 1 
15 18 28 2 
16 18 20 2 
17 16 17 1 
18 16 29 2 
19 16 19 2 
20 24 26 2 
21 23 24 1 
22 7 8 1 
23 6 7 2 
24 4 5 1 
25 4 8 2 
26 22 23 1 
27 22 27 2 
28 25 26 1 
29 26 27 1 
30 8 9 1 
31 5 6 1 
32 14 15 1 
33 2 3 1 
34 2 13 2 
35 1 2 1 
36 1 15 2 
ITEM: TIMESTEP
95300
ITEM: NUMBER OF ENTRIES
36
ITEM: BOX BOUNDS pp pp pp
-1.0000000000000000e+01 1.0000000000000000e+01
-1.0000000000000000e+01 1.0000000000000000e+01
-1.0000000000000000e+01 1.0000000000000000e+01
ITEM: ENTRIES index c_bondedatomid1 c_bondedatomid2 c_btype
1 12 17 2 
2 12 21 2 
3 17 18 1 
4 29 30 1 
5 11 12 1 
6 11 28 2 
7 13 14 1 
8 2 3 1 
9 2 13 2 
10 1 2 1 
11 1 15 2 
12 20 21 1 
13 10 11 1 
14 10 20 2 
15 10 30 2 
16 19 20 1 
17 18 28 2 
18 18 20 2 
19 21 29 2 
20 28 29 1 
21 16 17 1 
22 16 29 2 
23 16 19 2 
24 7 8 1 
25 4 5 1 
26 4 8 2 
27 8 9 1 
28 24 26 2 
29 23 24 1 
30 22 23 1 
31 22 27 2 
32 25 26 1 
33 26 27 1 
34 5 6 1 
35 6 7 2 
36 14 15 1 
ITEM: TIMESTEP
95400
ITEM: NUMBER OF ENTRIES
36
ITEM: BOX BOUNDS pp pp pp
-1.0000000000000000e+01 1.0000000000000000e+01
-1.0000000000000000e+01 1.0000000000000000e+01
-1.0000000000000000e+01 1.0000000000000000e+01
ITEM: ENTRIES index c_bondedatomid1 c_bondedatomid2 c_btype
1 12 17 2 
2 12 21 2 
3 17 18 1 
4 29 30 1 
5 11 12 1 
6 11 28 2 
7 13 14 1 
8 2 3 1 
9 2 13 2 
10 1 2 1 
11 1 15 2 
12 20 21 1 
13 10 11 1 
14 10 20 2 
15 10 30 2 
16 19 20 1 
17 18 28 2 
18 18 20 2 
19 21 29 2 
20 28 29 1 
21 16 17 1 
22 16 29 2 
23 16 19 2 
24 7 8 1 
25 4 5 1 
26 4 8 2 
27 8 9 1 
28 24 26 2 
29 23 24 1 
30 22 23 1 
31 22 27 2 
32 25 26 1 
33 26 27 1 
34 5 6 1 
35 6 7 2 
36 14 15 1 
ITEM: TIMESTEP
95500
ITEM: NUMBER OF ENTRIES
36
ITEM: BOX BOUNDS pp pp pp
-1.0000000000000000e+01 1.0000000000000000e+01
-1.0000000000000000e+01 1.0000000000000000e+01
-1.0000000000000000e+01 1.0000000000000000e+01
ITEM: ENTRIES index c_bondedatomid1 c_bondedatomid2 c_btype
1 12 17 2 
2 12 21 2 
3 17 18 1 
4 29 30 1 
5 11 12 1 
6 11 28 2 
7 13 14 1 
8 2 3 1 
9 2 13 2 
10 1 2 1 
11 1 15 2 
12 20 21 1 
13 10 11 1 
14 10 20 2 
15 10 30 2 
16 19 20 1 
17 18 28 2 
18 18 20 2 
19 21 29 2 
20 28 29 1 
21 16 17 1 
22 16 29 2 
23 16 19 2 
24 7 8 1 
25 4 5 1 
26 4 8 2 
27 8 9 1 
28 24 26 2 
29 23 24 1 
30 22 23 1 
31 22 27 2 
32 25 26 1 
33 26 27 1 
34 5 6 1 
35 6 7 2 
36 14 15 1 
ITEM: TIMESTEP
95600
ITEM: NUMBER OF ENTRIES
36
ITEM: BOX BOUNDS pp pp pp
-1.0000000000000000e+01 1.0000000000000000e+01
-1.0000000000000000e+01 1.0000000000000000e+01
-1.0000000000000000e+01 1.0000000000000000e+01
ITEM: ENTRIES index c_bondedatomid1 c_bondedatomid2 c_btype
1 12 17 2 
2 12 21 2 
3 17 18 1 
4 29 30 1 
5 11 12 1 
6 11 28 2 
7 13 14 1 
8 2 3 1 
9 2 13 2 
10 1 2 1 
11 1 15 2 
12 20 21 1 
13 10 11 1 
14 10 20 2 
15 10 30 2 
16 19 20 1 
17 18 28 2 
18 18 20 2 
19 21 29 2 
20 28 29 1 
21 16 17 1 
22 16 29 2 
23 16 19 2 
24 7 8 1 
25 4 5 1 
26 4 8 2 
27 8 9 1 
28 24 26 2 
29 23 24 1 
30 22 23 1 
31 22 27 2 
32 25 26 1 
33 26 27 1 
34 5 6 1 
35 6 7 2 
36 14 15 1 
ITEM: TIMESTEP
95700
ITEM: NUMBER OF ENTRIES
36
ITEM: BOX BOUNDS pp pp pp
-1.0000000000000000e+01 1.0000000000000000e+01
-1.0000000000000000e+01 1.0000000000000000e+01
-1.0000000000000000e+01 1.0000000000000000e+01
ITEM: ENTRIES index c_bondedatomid1 c_bondedatomid2 c_btype
1 12 17 2 
2 12 21 2 
3 17 18 1 
4 29 30 1 
5 11 12 1 
6 11 28 2 
7 13 14 1 
8 2 3 1 
9 2 13 2 
10 1 2 1 
11 1 15 2 
12 20 21 1 
13 10 11 1 
14 10 20 2 
15 10 30 2 
16 19 20 1 
17 18 28 2 
18 18 20 2 
19 21 29 2 
20 28 29 1 
21 16 17 1 
22 16 29 2 
23 16 19 2 
24 7 8 1 
25 4 5 1 
26 4 8 2 
27 8 9 1 
28 24 26 2 
29 23 24 1 
30 22 23 1 
31 22 27 2 
32 25 26 1 
33 26 27 1 
34 5 6 1 
35 6 7 2 
36 14 15 1 
ITEM: TIMESTEP
95800
ITEM: NUMBER OF ENTRIES
36
ITEM: BOX BOUNDS pp pp pp
-1.0000000000000000e+01 1.0000000000000000e+01
-1.0000000000000000e+01 1.0000000000000000e+01
-1.0000000000000000e+01 1.0000000000000000e+01
ITEM: ENTRIES index c_bondedatomid1 c_bondedatomid2 c_btype
1 12 17 2 
2 12 21 2 
3 17 18 1 
4 29 30 1 
5 11 12 1 
6 11 28 2 
7 13 14 1 
8 2 3 1 
9 2 13 2 
10 1 2 1 
11 1 15 2 
12 20 21 1 
13 10 11 1 
14 10 20 2 
15 10 30 2 
16 19 20 1 
17 18 28 2 
18 18 20 2 
19 21 29 2 
20 28 29 1 
21 16 17 1 
22 16 29 2 
23 16 19 2 
24 7 8 1 
25 4 5 1 
26 4 8 2 
27 8 9 1 
28 24 26 2 
29 23 24 1 
30 22 23 1 
31 22 27 2 
32 25 26 1 
33 26 27 1 
34 5 6 1 
35 6 7 2 
36 14 15 1 
ITEM: TIMESTEP
95900
ITEM: NUMBER OF ENTRIES
36
ITEM: BOX BOUNDS pp pp pp
-1.0000000000000000e+01 1.0000000000000000e+01
-1.0000000000000000e+01 1.0000000000000000e+01
-1.0000000000000000e+01 1.0000000000000000e+01
ITEM: ENTRIES index c_bondedatomid1 c_bondedatomid2 c_btype
1 12 17 2 
2 12 21 2 
3 17 18 1 
4 29 30 1 
5 11 12 1 
6 11 28 2 
7 13 14 1 
8 2 3 1 
9 2 13 2 
10 1 2 1 
11 1 15 2 
12 20 21 1 
13 10 11 1 
14 10 20 2 
15 10 30 2 
16 19 20 1 
17 18 28 2 
18 18 20 2 
19 21 29 2 
20 28 29 1 
21 16 17 1 
22 16 29 2 
23 16 19 2 
24 7 8 1 
25 4 5 1 
26 4 8 2 
27 8 9 1 
28 24 26 2 
29 23 24 1 
30 22 23 1 
31 22 27 2 
32 25 26 1 
33 26 27 1 
34 5 6 1 
35 6 7 2 
36 14 15 1 
ITEM: TIMESTEP
96000
ITEM: NUMBER OF ENTRIES
36
ITEM: BOX BOUNDS pp pp pp
-1.0000000000000000e+01 1.0000000000000000e+01
-1.0000000000000000e+01 1.0000000000000000e+01
-1.0000000000000000e+01 1.0000000000000000e+01
ITEM: ENTRIES index c_bondedatomid1 c_bondedatomid2 c_btype
1 12 17 2 
2 12 21 2 
3 17 18 1 
4 29 30 1 
5 11 12 1 
6 11 28 2 
7 13 14 1 
8 2 3 1 
9 2 13 2 
10 1 2 1 
11 1 15 2 
12 20 21 1 
13 10 11 1 
14 10 20 2 
15 10 30 2 
16 19 20 1 
17 18 28 2 
18 18 20 2 
19 21 29 2 
20 28 29 1 
21 16 17 1 
22 16 29 2 
23 16 19 2 
24 7 8 1 
25 4 5 1 
26 4 8 2 
27 8 9 1 
28 24 26 2 
29 23 24 1 
30 22 23 1 
31 22 27 2 
32 25 26 1 
33 26 27 1 
34 5 6 1 
35 6 7 2 
36 14 15 1 
ITEM: TIMESTEP
96100
ITEM: NUMBER OF ENTRIES
36
ITEM: BOX BOUNDS pp pp pp
-1.0000000000000000e+01 1.0000000000000000e+01
-1.0000000000000000e+01 1.0000000000000000e+01
-1.0000000000000000e+01 1.0000000000000000e+01
ITEM: ENTRIES index c_bondedatomid1 c_bondedatomid2 c_btype
1 12 17 2 
2 12 21 2 
3 17 18 1 
4 29 30 1 
5 11 12 1 
6 11 28 2 
7 13 14 1 
8 2 3 1 
9 2 13 2 
10 1 2 1 
11 1 15 2 
12 20 21 1 
13 10 11 1 
14 10 20 2 
15 10 30 2 
16 19 20 1 
17 18 28 2 
18 18 20 2 
19 21 29 2 
20 28 29 1 
21 16 17 1 
22 16 29 2 
23 16 19 2 
24 7 8 1 
25 4 5 1 
26 4 8 2 
27 8 9 1 
28 24 26 2 
29 23 24 1 
30 22 23 1 
31 22 27 2 
32 25 26 1 
33 26 27 1 
34 5 6 1 
35 6 7 2 
36 14 15 1 
ITEM: TIMESTEP
96200
ITEM: NUMBER OF ENTRIES
36
ITEM: BOX BOUNDS pp pp pp
-1.0000000000000000e+01 1.0000000000000000e+01
-1.0000000000000000e+01 1.0000000000000000e+01
-1.0000000000000000e+01 1.0000000000000000e+01
ITEM: ENTRIES index c_bondedatomid1 c_bondedatomid2 c_btype
1 12 17 2 
2 12 21 2 
3 17 18 1 
4 29 30 1 
5 18 28 2 
6 18 20 2 
7 16 17 1 
8 16 29 2 
9 16 19 2 
10 11 12 1 
11 11 28 2 
12 20 21 1 
13 10 11 1 
14 10 20 2 
15 10 30 2 
16 2 3 1 
17 2 13 2 
18 1 2 1 
19 1 15 2 
20 13 14 1 
21 14 15 1 
22 19 20 1 
23 28 29 1 
24 4 5 1 
25 4 8 2 
26 8 9 1 
27 7 8 1 
28 25 26 1 
29 24 26 2 
30 23 24 1 
31 22 23 1 
32 22 27 2 
33 26 27 1 
34 5 6 1 
35 6 7 2 
36 21 29 2 
ITEM: TIMESTEP
96300
ITEM: NUMBER OF ENTRIES
36
ITEM: BOX BOUNDS pp pp pp
-1.0000000000000000e+01 1.0000000000000000e+01
-1.0000000000000000e+01 1.0000000000000000e+01
-1.0000000000000000e+01 1.0000000000000000e+01
ITEM: ENTRIES index c_bondedatomid1 c_bondedatomid2 c_btype
1 12 17 2 
2 12 21 2 
3 17 18 1 
4 29 30 1 
5 18 28 2 
6 18 20 2 
7 16 17 1 
8 16 29 2 
9 16 19 2 
10 11 12 1 
11 11 28 2 
12 20 21 1 
13 10 11 1 
14 10 20 2 
15 10 30 2 
16 2 3 1 
17 2 13 2 
18 1 2 1 
19 1 15 2 
20 13 14 1 
21 14 15 1 
22 19 20 1 
23 28 29 1 
24 4 5 1 
25 4 8 2 
26 8 9 1 
27 7 8 1 
28 25 26 1 
29 24 26 2 
30 23 24 1 
31 22 23 1 
32 22 27 2 
33 26 27 1 
34 5 6 1 
35 6 7 2 
36 21 29 2 
ITEM: TIMESTEP
96400
ITEM: NUMBER OF ENTRIES
36
ITEM: BOX BOUNDS pp pp pp
-1.0000000000000000e+01 1.0000000000000000e+01
-1.0000000000000000e+01 1.0000000000000000e+01
-1.0000000000000000e+01 1.0000000000000000e+01
ITEM: ENTRIES index c_bondedatomid1 c_bondedatomid2 c_btype
1 12 17 2 
2 12 21 2 
3 17 18 1 
4 29 30 1 
5 18 28 2 
6 18 20 2 
7 16 17 1 
8 16 29 2 
9 16 19 2 
10 11 12 1 
11 11 28 2 
12 20 21 1 
13 10 11 1 
14 10 20 2 
15 10 30 2 
16 2 3 1 
17 2 13 2 
18 1 2 1 
19 1 15 2 
20 13 14 1 
21 14 15 1 
22 19 20 1 
23 28 29 1 
24 4 5 1 
25 4 8 2 
26 8 9 1 
27 7 8 1 
28 25 26 1 
29 24 26 2 
30 23 24 1 
31 22 23 1 
32 22 27 2 
33 26 27 1 
34 5 6 1 
35 6 7 2 
36 21 29 2 
ITEM: TIMESTEP
96500
ITEM: NUMBER OF ENTRIES
36
ITEM: BOX BOUNDS pp pp pp
-1.0000000000000000e+01 1.0000000000000000e+01
-1.0000000000000000e+01 1.0000000000000000e+01
-1.0000000000000000e+01 1.0000000000000000e+01
ITEM: ENTRIES index c_bondedatomid1 c_bondedatomid2 c_btype
1 12 17 2 
2 12 21 2 
3 17 18 1 
4 29 30 1 
5 18 28 2 
6 18 20 2 
7 16 17 1 
8 16 29 2 
9 16 19 2 
10 11 12 1 
11 11 28 2 
12 20 21 1 
13 10 11 1 
14 10 20 2 
15 10 30 2 
16 2 3 1 
17 2 13 2 
18 1 2 1 
19 1 15 2 
20 13 14 1 
21 14 15 1 
22 19 20 1 
23 28 29 1 
24 4 5 1 
25 4 8 2 
26 8 9 1 
27 7 8 1 
28 25 26 1 
29 24 26 2 
30 23 24 1 
31 22 23 1 
32 22 27 2 
33 26 27 1 
34 5 6 1 
35 6 7 2 
36 21 29 2 
ITEM: TIMESTEP
96600
ITEM: NUMBER OF ENTRIES
36
ITEM: BOX BOUNDS pp pp pp
-1.0000000000000000e+01 1.0000000000000000e+01
-1.0000000000000000e+01 1.0000000000000000e+01
-1.0000000000000000e+01 1.0000000000000000e+01
ITEM: ENTRIES index c_bondedatomid1 c_bondedatomid2 c_btype
1 12 17 2 
2 12 21 2 
3 17 18 1 
4 29 30 1 
5 18 28 2 
6 18 20 2 
7 16 17 1 
8 16 29 2 
9 16 19 2 
10 11 12 1 
11 11 28 2 
12 20 21 1 
13 10 11 1 
14 10 20 2 
15 10 30 2 
16 2 3 1 
17 2 13 2 
18 1 2 1 
19 1 15 2 
20 13 14 1 
21 14 15 1 
22 19 20 1 
23 28 29 1 
24 4 5 1 
25 4 8 2 
26 8 9 1 
27 7 8 1 
28 25 26 1 
29 24 26 2 
30 23 24 1 
31 22 23 1 
32 22 27 2 
33 26 27 1 
34 5 6 1 
35 6 7 2 
36 21 29 2 
ITEM: TIMESTEP
96700
ITEM: NUMBER OF ENTRIES
36
ITEM: BOX BOUNDS pp pp pp
-1.0000000000000000e+01 1.0000000000000000e+01
-1.0000000000000000e+01 1.0000000000000000e+01
-1.0000000000000000e+01 1.0000000000000000e+01
ITEM: ENTRIES index c_bondedatomid1 c_bondedatomid2 c_btype
1 12 17 2 
2 12 21 2 
3 17 18 1 
4 29 30 1 
5 18 28 2 
6 18 20 2 
7 16 17 1 
8 16 29 2 
9 16 19 2 
10 11 12 1 
11 11 28 2 
12 20 21 1 
13 10 11 1 
14 10 20 2 
15 10 30 2 
16 2 3 1 
17 2 13 2 
18 1 2 1 
19 1 15 2 
20 13 14 1 
21 14 15 1 
22 19 20 1 
23 28 29 1 
24 4 5 1 
25 4 8 2 
26 8 9 1 
27 7 8 1 
28 25 26 1 
29 24 26 2 
30 23 24 1 
31 22 23 1 
32 22 27 2 
33 26 27 1 
34 5 6 1 
35 6 7 2 
36 21 29 2 
ITEM: TIMESTEP
96800
ITEM: NUMBER OF ENTRIES
36
ITEM: BOX BOUNDS pp pp pp
-1.0000000000000000e+01 1.0000000000000000e+01
-1.0000000000000000e+01 1.0000000000000000e+01
-1.0000000000000000e+01 1.0000000000000000e+01
ITEM: ENTRIES index c_bondedatomid1 c_bondedatomid2 c_btype
1 12 17 2 
2 12 21 2 
3 17 18 1 
4 29 30 1 
5 18 28 2 
6 18 20 2 
7 16 17 1 
8 16 29 2 
9 16 19 2 
10 11 12 1 
11 11 28 2 
12 20 21 1 
13 10 11 1 
14 10 20 2 
15 10 30 2 
16 2 3 1 
17 2 13 2 
18 1 2 1 
19 1 15 2 
20 13 14 1 
21 14 15 1 
22 19 20 1 
23 28 29 1 
24 4 5 1 
25 4 8 2 
26 8 9 1 
27 7 8 1 
28 25 26 1 
29 24 26 2 
30 23 24 1 
31 22 23 1 
32 22 27 2 
33 26 27 1 
34 5 6 1 
35 6 7 2 
36 21 29 2 
ITEM: TIMESTEP
96900
ITEM: NUMBER OF ENTRIES
36
ITEM: BOX BOUNDS pp pp pp
-1.0000000000000000e+01 1.0000000000000000e+01
-1.0000000000000000e+01 1.0000000000000000e+01
-1.0000000000000000e+01 1.0000000000000000e+01
ITEM: ENTRIES index c_bondedatomid1 c_bondedatomid2 c_btype
1 12 17 2 
2 12 21 2 
3 17 18 1 
4 29 30 1 
5 18 28 2 
6 18 20 2 
7 16 17 1 
8 16 29 2 
9 16 19 2 
10 11 12 1 
11 11 28 2 
12 20 21 1 
13 10 11 1 
14 10 20 2 
15 10 30 2 
16 2 3 1 
17 2 13 2 
18 1 2 1 
19 1 15 2 
20 13 14 1 
21 14 15 1 
22 19 20 1 
23 28 29 1 
24 4 5 1 
25 4 8 2 
26 8 9 1 
27 7 8 1 
28 25 26 1 
29 24 26 2 
30 23 24 1 
31 22 23 1 
32 22 27 2 
33 26 27 1 
34 5 6 1 
35 6 7 2 
36 21 29 2 
ITEM: TIMESTEP
97000
ITEM: NUMBER OF ENTRIES
36
ITEM: BOX BOUNDS pp pp pp
-1.0000000000000000e+01 1.0000000000000000e+01
-1.0000000000000000e+01 1.0000000000000000e+01
-1.0000000000000000e+01 1.0000000000000000e+01
ITEM: ENTRIES index c_bondedatomid1 c_bondedatomid2 c_btype
1 12 17 2 
2 12 21 2 
3 17 18 1 
4 29 30 1 
5 18 28 2 
6 18 20 2 
7 16 17 1 
8 16 29 2 
9 16 19 2 
10 11 12 1 
11 11 28 2 
12 20 21 1 
13 10 11 1 
14 10 20 2 
15 10 30 2 
16 2 3 1 
17 2 13 2 
18 1 2 1 
19 1 15 2 
20 13 14 1 
21 14 15 1 
22 19 20 1 
23 28 29 1 
24 4 5 1 
25 4 8 2 
26 8 9 1 
27 7 8 1 
28 25 26 1 
29 24 26 2 
30 23 24 1 
31 22 23 1 
32 22 27 2 
33 26 27 1 
34 5 6 1 
35 6 7 2 
36 21 29 2 
ITEM: TIMESTEP
97100
ITEM: NUMBER OF ENTRIES
36
ITEM: BOX BOUNDS pp pp pp
-1.0000000000000000e+01 1.0000000000000000e+01
-1.0000000000000000e+01 1.0000000000000000e+01
-1.0000000000000000e+01 1.0000000000000000e+01
ITEM: ENTRIES index c_bondedatomid1 c_bondedatomid2 c_btype
1 12 17 2 
2 12 21 2 
3 17 18 1 
4 11 12 1 
5 11 28 2 
6 20 21 1 
7 28 29 1 
8 21 29 2 
9 10 11 1 
10 10 20 2 
11 10 30 2 
12 2 3 1 
13 2 13 2 
14 1 2 1 
15 1 15 2 
16 13 14 1 
17 14 15 1 
18 29 30 1 
19 18 28 2 
20 18 20 2 
21 16 17 1 
22 16 29 2 
23 16 19 2 
24 19 20 1 
25 4 5 1 
26 4 8 2 
27 8 9 1 
28 5 6 1 
29 7 8 1 
30 6 7 2 
31 25 26 1 
32 26 27 1 
33 24 26 2 
34 23 24 1 
35 22 23 1 
36 22 27 2 
ITEM: TIMESTEP
97200
ITEM: NUMBER OF ENTRIES
36
ITEM: BOX BOUNDS pp pp pp
-1.0000000000000000e+01 1.0000000000000000e+01
-1.0000000000000000e+01 1.0000000000000000e+01
-1.0000000000000000e+01 1.0000000000000000e+01
ITEM: ENTRIES index c_bondedatomid1 c_bondedatomid2 c_btype
1 12 17 2 
2 12 21 2 
3 17 18 1 
4 11 12 1 
5 11 28 2 
6 20 21 1 
7 28 29 1 
8 21 29 2 
9 10 11 1 
10 10 20 2 
11 10 30 2 
12 2 3 1 
13 2 13 2 
14 1 2 1 
15 1 15 2 
16 13 14 1 
17 14 15 1 
18 29 30 1 
19 18 28 2 
20 18 20 2 
21 16 17 1 
22 16 29 2 
23 16 19 2 
24 19 20 1 
25 4 5 1 
26 4 8 2 
27 8 9 1 
28 5 6 1 
29 7 8 1 
30 6 7 2 
31 25 26 1 
32 26 27 1 
33 24 26 2 
34 23 24 1 
35 22 23 1 
36 22 27 2 
ITEM: TIMESTEP
97300
ITEM: NUMBER OF ENTRIES
36
ITEM: BOX BOUNDS pp pp pp
-1.0000000000000000e+01 1.0000000000000000e+01
-1.0000000000000000e+01 1.0000000000000000e+01
-1.0000000000000000e+01 1.0000000000000000e+01
ITEM: ENTRIES index c_bondedatomid1 c_bondedatomid2 c_btype
1 12 17 2 
2 12 21 2 
3 17 18 1 
4 11 12 1 
5 11 28 2 
6 20 21 1 
7 28 29 1 
8 21 29 2 
9 10 11 1 
10 10 20 2 
11 10 30 2 
12 2 3 1 
13 2 13 2 
14 1 2 1 
15 1 15 2 
16 13 14 1 
17 14 15 1 
18 29 30 1 
19 18 28 2 
20 18 20 2 
21 16 17 1 
22 16 29 2 
23 16 19 2 
24 19 20 1 
25 4 5 1 
26 4 8 2 
27 8 9 1 
28 5 6 1 
29 7 8 1 
30 6 7 2 
31 25 26 1 
32 26 27 1 
33 24 26 2 
34 23 24 1 
35 22 23 1 
36 22 27 2 
ITEM: TIMESTEP
97400
ITEM: NUMBER OF ENTRIES
36
ITEM: BOX BOUNDS pp pp pp
-1.0000000000000000e+01 1.0000000000000000e+01
-1.0000000000000000e+01 1.0000000000000000e+01
-1.0000000000000000e+01 1.0000000000000000e+01
ITEM: ENTRIES index c_bondedatomid1 c_bondedatomid2 c_btype
1 12 17 2 
2 12 21 2 
3 17 18 1 
4 11 12 1 
5 11 28 2 
6 20 21 1 
7 28 29 1 
8 21 29 2 
9 10 11 1 
10 10 20 2 
11 10 30 2 
12 2 3 1 
13 2 13 2 
14 1 2 1 
15 1 15 2 
16 13 14 1 
17 14 15 1 
18 29 30 1 
19 18 28 2 
20 18 20 2 
21 16 17 1 
22 16 29 2 
23 16 19 2 
24 19 20 1 
25 4 5 1 
26 4 8 2 
27 8 9 1 
28 5 6 1 
29 7 8 1 
30 6 7 2 
31 25 26 1 
32 26 27 1 
33 24 26 2 
34 23 24 1 
35 22 23 1 
36 22 27 2 
ITEM: TIMESTEP
97500
ITEM: NUMBER OF ENTRIES
36
ITEM: BOX BOUNDS pp pp pp
-1.0000000000000000e+01 1.0000000000000000e+01
-1.0000000000000000e+01 1.0000000000000000e+01
-1.0000000000000000e+01 1.0000000000000000e+01
ITEM: ENTRIES index c_bondedatomid1 c_bondedatomid2 c_btype
1 12 17 2 
2 12 21 2 
3 17 18 1 
4 11 12 1 
5 11 28 2 
6 20 21 1 
7 28 29 1 
8 21 29 2 
9 10 11 1 
10 10 20 2 
11 10 30 2 
12 2 3 1 
13 2 13 2 
14 1 2 1 
15 1 15 2 
16 13 14 1 
17 14 15 1 
18 29 30 1 
19 18 28 2 
20 18 20 2 
21 16 17 1 
22 16 29 2 
23 16 19 2 
24 19 20 1 
25 4 5 1 
26 4 8 2 
27 8 9 1 
28 5 6 1 
29 7 8 1 
30 6 7 2 
31 25 26 1 
32 26 27 1 
33 24 26 2 
34 23 24 1 
35 22 23 1 
36 22 27 2 
ITEM: TIMESTEP
97600
ITEM: NUMBER OF ENTRIES
36
ITEM: BOX BOUNDS pp pp pp
-1.0000000000000000e+01 1.0000000000000000e+01
-1.0000000000000000e+01 1.0000000000000000e+01
-1.0000000000000000e+01 1.0000000000000000e+01
ITEM: ENTRIES index c_bondedatomid1 c_bondedatomid2 c_btype
1 12 17 2 
2 12 21 2 
3 17 18 1 
4 11 12 1 
5 11 28 2 
6 20 21 1 
7 28 29 1 
8 21 29 2 
9 10 11 1 
10 10 20 2 
11 10 30 2 
12 2 3 1 
13 2 13 2 
14 1 2 1 
15 1 15 2 
16 13 14 1 
17 14 15 1 
18 29 30 1 
19 18 28 2 
20 18 20 2 
21 16 17 1 
22 16 29 2 
23 16 19 2 
24 19 20 1 
25 4 5 1 
26 4 8 2 
27 8 9 1 
28 5 6 1 
29 7 8 1 
30 6 7 2 
31 25 26 1 
32 26 27 1 
33 24 26 2 
34 23 24 1 
35 22 23 1 
36 22 27 2 
ITEM: TIMESTEP
97700
ITEM: NUMBER OF ENTRIES
36
ITEM: BOX BOUNDS pp pp pp
-1.0000000000000000e+01 1.0000000000000000e+01
-1.0000000000000000e+01 1.0000000000000000e+01
-1.0000000000000000e+01 1.0000000000000000e+01
ITEM: ENTRIES index c_bondedatomid1 c_bondedatomid2 c_btype
1 12 17 2 
2 12 21 2 
3 17 18 1 
4 11 12 1 
5 11 28 2 
6 20 21 1 
7 28 29 1 
8 21 29 2 
9 10 11 1 
10 10 20 2 
11 10 30 2 
12 2 3 1 
13 2 13 2 
14 1 2 1 
15 1 15 2 
16 13 14 1 
17 14 15 1 
18 29 30 1 
19 18 28 2 
20 18 20 2 
21 16 17 1 
22 16 29 2 
23 16 19 2 
24 19 20 1 
25 4 5 1 
26 4 8 2 
27 8 9 1 
28 5 6 1 
29 7 8 1 
30 6 7 2 
31 25 26 1 
32 26 27 1 
33 24 26 2 
34 23 24 1 
35 22 23 1 
36 22 27 2 
ITEM: TIMESTEP
97800
ITEM: NUMBER OF ENTRIES
36
ITEM: BOX BOUNDS pp pp pp
-1.0000000000000000e+01 1.0000000000000000e+01
-1.0000000000000000e+01 1.0000000000000000e+01
-1.0000000000000000e+01 1.0000000000000000e+01
ITEM: ENTRIES index c_bondedatomid1 c_bondedatomid2 c_btype
1 12 17 2 
2 12 21 2 
3 17 18 1 
4 11 12 1 
5 11 28 2 
6 20 21 1 
7 28 29 1 
8 21 29 2 
9 10 11 1 
10 10 20 2 
11 10 30 2 
12 2 3 1 
13 2 13 2 
14 1 2 1 
15 1 15 2 
16 13 14 1 
17 14 15 1 
18 29 30 1 
19 18 28 2 
20 18 20 2 
21 16 17 1 
22 16 29 2 
23 16 19 2 
24 19 20 1 
25 4 5 1 
26 4 8 2 
27 8 9 1 
28 5 6 1 
29 7 8 1 
30 6 7 2 
31 25 26 1 
32 26 27 1 
33 24 26 2 
34 23 24 1 
35 22 23 1 
36 22 27 2 
ITEM: TIMESTEP
97900
ITEM: NUMBER OF ENTRIES
36
ITEM: BOX BOUNDS pp pp pp
-1.0000000000000000e+01 1.0000000000000000e+01
-1.0000000000000000e+01 1.0000000000000000e+01
-1.0000000000000000e+01 1.0000000000000000e+01
ITEM: ENTRIES index c_bondedatomid1 c_bondedatomid2 c_btype
1 12 17 2 
2 12 21 2 
3 17 18 1 
4 11 12 1 
5 11 28 2 
6 20 21 1 
7 28 29 1 
8 21 29 2 
9 10 11 1 
10 10 20 2 
11 10 30 2 
12 2 3 1 
13 2 13 2 
14 1 2 1 
15 1 15 2 
16 13 14 1 
17 14 15 1 
18 29 30 1 
19 18 28 2 
20 18 20 2 
21 16 17 1 
22 16 29 2 
23 16 19 2 
24 19 20 1 
25 4 5 1 
26 4 8 2 
27 8 9 1 
28 5 6 1 
29 7 8 1 
30 6 7 2 
31 25 26 1 
32 26 27 1 
33 24 26 2 
34 23 24 1 
35 22 23 1 
36 22 27 2 
ITEM: TIMESTEP
98000
ITEM: NUMBER OF ENTRIES
36
ITEM: BOX BOUNDS pp pp pp
-1.0000000000000000e+01 1.0000000000000000e+01
-1.0000000000000000e+01 1.0000000000000000e+01
-1.0000000000000000e+01 1.0000000000000000e+01
ITEM: ENTRIES index c_bondedatomid1 c_bondedatomid2 c_btype
1 12 17 2 
2 12 21 2 
3 17 18 1 
4 11 12 1 
5 11 28 2 
6 20 21 1 
7 28 29 1 
8 21 29 2 
9 10 11 1 
10 10 20 2 
11 10 30 2 
12 2 3 1 
13 2 13 2 
14 1 2 1 
15 1 15 2 
16 13 14 1 
17 14 15 1 
18 29 30 1 
19 18 28 2 
20 18 20 2 
21 16 17 1 
22 16 29 2 
23 16 19 2 
24 19 20 1 
25 4 5 1 
26 4 8 2 
27 8 9 1 
28 5 6 1 
29 7 8 1 
30 6 7 2 
31 25 26 1 
32 26 27 1 
33 24 26 2 
34 23 24 1 
35 22 23 1 
36 22 27 2 
ITEM: TIMESTEP
98100
ITEM: NUMBER OF ENTRIES
36
ITEM: BOX BOUNDS pp pp pp
-1.0000000000000000e+01 1.0000000000000000e+01
-1.0000000000000000e+01 1.0000000000000000e+01
-1.0000000000000000e+01 1.0000000000000000e+01
ITEM: ENTRIES index c_bondedatomid1 c_bondedatomid2 c_btype
1 12 17 2 
2 12 21 2 
3 17 18 1 
4 11 12 1 
5 11 28 2 
6 20 21 1 
7 28 29 1 
8 21 29 2 
9 10 11 1 
10 10 20 2 
11 10 30 2 
12 2 3 1 
13 2 13 2 
14 1 2 1 
15 1 15 2 
16 13 14 1 
17 14 15 1 
18 29 30 1 
19 18 28 2 
20 18 20 2 
21 16 17 1 
22 16 29 2 
23 16 19 2 
24 19 20 1 
25 4 5 1 
26 4 8 2 
27 8 9 1 
28 5 6 1 
29 7 8 1 
30 6 7 2 
31 25 26 1 
32 26 27 1 
33 24 26 2 
34 23 24 1 
35 22 23 1 
36 22 27 2 
ITEM: TIMESTEP
98200
ITEM: NUMBER OF ENTRIES
36
ITEM: BOX BOUNDS pp pp pp
-1.0000000000000000e+01 1.0000000000000000e+01
-1.0000000000000000e+01 1.0000000000000000e+01
-1.0000000000000000e+01 1.0000000000000000e+01
ITEM: ENTRIES index c_bondedatomid1 c_bondedatomid2 c_btype
1 12 17 2 
2 12 21 2 
3 20 21 1 
4 28 29 1 
5 19 20 1 
6 11 12 1 
7 11 28 2 
8 2 3 1 
9 2 13 2 
10 1 2 1 
11 1 15 2 
12 13 14 1 
13 14 15 1 
14 21 29 2 
15 18 28 2 
16 18 20 2 
17 16 17 1 
18 16 29 2 
19 16 19 2 
20 17 18 1 
21 10 11 1 
22 10 20 2 
23 10 30 2 
24 29 30 1 
25 4 5 1 
26 4 8 2 
27 8 9 1 
28 5 6 1 
29 7 8 1 
30 6 7 2 
31 23 24 1 
32 25 26 1 
33 26 27 1 
34 24 26 2 
35 22 23 1 
36 22 27 2 
ITEM: TIMESTEP
98300
ITEM: NUMBER OF ENTRIES
36
ITEM: BOX BOUNDS pp pp pp
-1.0000000000000000e+01 1.0000000000000000e+01
-1.0000000000000000e+01 1.0000000000000000e+01
-1.0000000000000000e+01 1.0000000000000000e+01
ITEM: ENTRIES index c_bondedatomid1 c_bondedatomid2 c_btype
1 12 17 2 
2 12 21 2 
3 20 21 1 
4 28 29 1 
5 19 20 1 
6 11 12 1 
7 11 28 2 
8 2 3 1 
9 2 13 2 
10 1 2 1 
11 1 15 2 
12 13 14 1 
13 14 15 1 
14 21 29 2 
15 18 28 2 
16 18 20 2 
17 16 17 1 
18 16 29 2 
19 16 19 2 
20 17 18 1 
21 10 11 1 
22 10 20 2 
23 10 30 2 
24 29 30 1 
25 4 5 1 
26 4 8 2 
27 8 9 1 
28 5 6 1 
29 7 8 1 
30 6 7 2 
31 23 24 1 
32 25 26 1 
33 26 27 1 
34 24 26 2 
35 22 23 1 
36 22 27 2 
ITEM: TIMESTEP
98400
ITEM: NUMBER OF ENTRIES
36
ITEM: BOX BOUNDS pp pp pp
-1.0000000000000000e+01 1.0000000000000000e+01
-1.0000000000000000e+01 1.0000000000000000e+01
-1.0000000000000000e+01 1.0000000000000000e+01
ITEM: ENTRIES index c_bondedatomid1 c_bondedatomid2 c_btype
1 12 17 2 
2 12 21 2 
3 20 21 1 
4 28 29 1 
5 19 20 1 
6 11 12 1 
7 11 28 2 
8 2 3 1 
9 2 13 2 
10 1 2 1 
11 1 15 2 
12 13 14 1 
13 14 15 1 
14 21 29 2 
15 18 28 2 
16 18 20 2 
17 16 17 1 
18 16 29 2 
19 16 19 2 
20 17 18 1 
21 10 11 1 
22 10 20 2 
23 10 30 2 
24 29 30 1 
25 4 5 1 
26 4 8 2 
27 8 9 1 
28 5 6 1 
29 7 8 1 
30 6 7 2 
31 23 24 1 
32 25 26 1 
33 26 27 1 
34 24 26 2 
35 22 23 1 
36 22 27 2 
ITEM: TIMESTEP
98500
ITEM: NUMBER OF ENTRIES
36
ITEM: BOX BOUNDS pp pp pp
-1.0000000000000000e+01 1.0000000000000000e+01
-1.0000000000000000e+01 1.0000000000000000e+01
-1.0000000000000000e+01 1.0000000000000000e+01
ITEM: ENTRIES index c_bondedatomid1 c_bondedatomid2 c_btype
1 12 17 2 
2 12 21 2 
3 20 21 1 
4 28 29 1 
5 19 20 1 
6 11 12 1 
7 11 28 2 
8 2 3 1 
9 2 13 2 
10 1 2 1 
11 1 15 2 
12 13 14 1 
13 14 15 1 
14 21 29 2 
15 18 28 2 
16 18 20 2 
17 16 17 1 
18 16 29 2 
19 16 19 2 
20 17 18 1 
21 10 11 1 
22 10 20 2 
23 10 30 2 
24 29 30 1 
25 4 5 1 
26 4 8 2 
27 8 9 1 
28 5 6 1 
29 7 8 1 
30 6 7 2 
31 23 24 1 
32 25 26 1 
33 26 27 1 
34 24 26 2 
35 22 23 1 
36 22 27 2 
ITEM: TIMESTEP
98600
ITEM: NUMBER OF ENTRIES
36
ITEM: BOX BOUNDS pp pp pp
-1.0000000000000000e+01 1.0000000000000000e+01
-1.0000000000000000e+01 1.0000000000000000e+01
-1.0000000000000000e+01 1.0000000000000000e+01
ITEM: ENTRIES index c_bondedatomid1 c_bondedatomid2 c_btype
1 12 17 2 
2 12 21 2 
3 20 21 1 
4 28 29 1 
5 19 20 1 
6 11 12 1 
7 11 28 2 
8 2 3 1 
9 2 13 2 
10 1 2 1 
11 1 15 2 
12 13 14 1 
13 14 15 1 
14 21 29 2 
15 18 28 2 
16 18 20 2 
17 16 17 1 
18 16 29 2 
19 16 19 2 
20 17 18 1 
21 10 11 1 
22 10 20 2 
23 10 30 2 
24 29 30 1 
25 4 5 1 
26 4 8 2 
27 8 9 1 
28 5 6 1 
29 7 8 1 
30 6 7 2 
31 23 24 1 
32 25 26 1 
33 26 27 1 
34 24 26 2 
35 22 23 1 
36 22 27 2 
ITEM: TIMESTEP
98700
ITEM: NUMBER OF ENTRIES
36
ITEM: BOX BOUNDS pp pp pp
-1.0000000000000000e+01 1.0000000000000000e+01
-1.0000000000000000e+01 1.0000000000000000e+01
-1.0000000000000000e+01 1.0000000000000000e+01
ITEM: ENTRIES index c_bondedatomid1 c_bondedatomid2 c_btype
1 12 17 2 
2 12 21 2 
3 20 21 1 
4 28 29 1 
5 19 20 1 
6 11 12 1 
7 11 28 2 
8 2 3 1 
9 2 13 2 
10 1 2 1 
11 1 15 2 
12 13 14 1 
13 14 15 1 
14 21 29 2 
15 18 28 2 
16 18 20 2 
17 16 17 1 
18 16 29 2 
19 16 19 2 
20 17 18 1 
21 10 11 1 
22 10 20 2 
23 10 30 2 
24 29 30 1 
25 4 5 1 
26 4 8 2 
27 8 9 1 
28 5 6 1 
29 7 8 1 
30 6 7 2 
31 23 24 1 
32 25 26 1 
33 26 27 1 
34 24 26 2 
35 22 23 1 
36 22 27 2 
ITEM: TIMESTEP
98800
ITEM: NUMBER OF ENTRIES
36
ITEM: BOX BOUNDS pp pp pp
-1.0000000000000000e+01 1.0000000000000000e+01
-1.0000000000000000e+01 1.0000000000000000e+01
-1.0000000000000000e+01 1.0000000000000000e+01
ITEM: ENTRIES index c_bondedatomid1 c_bondedatomid2 c_btype
1 12 17 2 
2 12 21 2 
3 20 21 1 
4 28 29 1 
5 19 20 1 
6 11 12 1 
7 11 28 2 
8 2 3 1 
9 2 13 2 
10 1 2 1 
11 1 15 2 
12 13 14 1 
13 14 15 1 
14 21 29 2 
15 18 28 2 
16 18 20 2 
17 16 17 1 
18 16 29 2 
19 16 19 2 
20 17 18 1 
21 10 11 1 
22 10 20 2 
23 10 30 2 
24 29 30 1 
25 4 5 1 
26 4 8 2 
27 8 9 1 
28 5 6 1 
29 7 8 1 
30 6 7 2 
31 23 24 1 
32 25 26 1 
33 26 27 1 
34 24 26 2 
35 22 23 1 
36 22 27 2 
ITEM: TIMESTEP
98900
ITEM: NUMBER OF ENTRIES
36
ITEM: BOX BOUNDS pp pp pp
-1.0000000000000000e+01 1.0000000000000000e+01
-1.0000000000000000e+01 1.0000000000000000e+01
-1.0000000000000000e+01 1.0000000000000000e+01
ITEM: ENTRIES index c_bondedatomid1 c_bondedatomid2 c_btype
1 12 17 2 
2 12 21 2 
3 20 21 1 
4 28 29 1 
5 19 20 1 
6 11 12 1 
7 11 28 2 
8 2 3 1 
9 2 13 2 
10 1 2 1 
11 1 15 2 
12 13 14 1 
13 14 15 1 
14 21 29 2 
15 18 28 2 
16 18 20 2 
17 16 17 1 
18 16 29 2 
19 16 19 2 
20 17 18 1 
21 10 11 1 
22 10 20 2 
23 10 30 2 
24 29 30 1 
25 4 5 1 
26 4 8 2 
27 8 9 1 
28 5 6 1 
29 7 8 1 
30 6 7 2 
31 23 24 1 
32 25 26 1 
33 26 27 1 
34 24 26 2 
35 22 23 1 
36 22 27 2 
ITEM: TIMESTEP
99000
ITEM: NUMBER OF ENTRIES
36
ITEM: BOX BOUNDS pp pp pp
-1.0000000000000000e+01 1.0000000000000000e+01
-1.0000000000000000e+01 1.0000000000000000e+01
-1.0000000000000000e+01 1.0000000000000000e+01
ITEM: ENTRIES index c_bondedatomid1 c_bondedatomid2 c_btype
1 12 17 2 
2 12 21 2 
3 20 21 1 
4 28 29 1 
5 19 20 1 
6 11 12 1 
7 11 28 2 
8 2 3 1 
9 2 13 2 
10 1 2 1 
11 1 15 2 
12 13 14 1 
13 14 15 1 
14 21 29 2 
15 18 28 2 
16 18 20 2 
17 16 17 1 
18 16 29 2 
19 16 19 2 
20 17 18 1 
21 10 11 1 
22 10 20 2 
23 10 30 2 
24 29 30 1 
25 4 5 1 
26 4 8 2 
27 8 9 1 
28 5 6 1 
29 7 8 1 
30 6 7 2 
31 23 24 1 
32 25 26 1 
33 26 27 1 
34 24 26 2 
35 22 23 1 
36 22 27 2 
ITEM: TIMESTEP
99100
ITEM: NUMBER OF ENTRIES
36
ITEM: BOX BOUNDS pp pp pp
-1.0000000000000000e+01 1.0000000000000000e+01
-1.0000000000000000e+01 1.0000000000000000e+01
-1.0000000000000000e+01 1.0000000000000000e+01
ITEM: ENTRIES index c_bondedatomid1 c_bondedatomid2 c_btype
1 12 17 2 
2 12 21 2 
3 20 21 1 
4 28 29 1 
5 19 20 1 
6 11 12 1 
7 11 28 2 
8 2 3 1 
9 2 13 2 
10 1 2 1 
11 1 15 2 
12 13 14 1 
13 14 15 1 
14 21 29 2 
15 18 28 2 
16 18 20 2 
17 16 17 1 
18 16 29 2 
19 16 19 2 
20 17 18 1 
21 10 11 1 
22 10 20 2 
23 10 30 2 
24 29 30 1 
25 4 5 1 
26 4 8 2 
27 8 9 1 
28 5 6 1 
29 7 8 1 
30 6 7 2 
31 23 24 1 
32 25 26 1 
33 26 27 1 
34 24 26 2 
35 22 23 1 
36 22 27 2 
ITEM: TIMESTEP
99200
ITEM: NUMBER OF ENTRIES
36
ITEM: BOX BOUNDS pp pp pp
-1.0000000000000000e+01 1.0000000000000000e+01
-1.0000000000000000e+01 1.0000000000000000e+01
-1.0000000000000000e+01 1.0000000000000000e+01
ITEM: ENTRIES index c_bondedatomid1 c_bondedatomid2 c_btype
1 13 14 1 
2 12 17 2 
3 12 21 2 
4 19 20 1 
5 21 29 2 
6 16 17 1 
7 16 29 2 
8 16 19 2 
9 17 18 1 
10 2 3 1 
11 2 13 2 
12 1 2 1 
13 1 15 2 
14 14 15 1 
15 20 21 1 
16 28 29 1 
17 18 28 2 
18 18 20 2 
19 10 11 1 
20 10 20 2 
21 10 30 2 
22 11 12 1 
23 11 28 2 
24 29 30 1 
25 4 5 1 
26 4 8 2 
27 8 9 1 
28 7 8 1 
29 25 26 1 
30 26 27 1 
31 24 26 2 
32 22 23 1 
33 22 27 2 
34 23 24 1 
35 5 6 1 
36 6 7 2 
ITEM: TIMESTEP
99300
ITEM: NUMBER OF ENTRIES
36
ITEM: BOX BOUNDS pp pp pp
-1.0000000000000000e+01 1.0000000000000000e+01
-1.0000000000000000e+01 1.0000000000000000e+01
-1.0000000000000000e+01 1.0000000000000000e+01
ITEM: ENTRIES index c_bondedatomid1 c_bondedatomid2 c_btype
1 13 14 1 
2 12 17 2 
3 12 21 2 
4 19 20 1 
5 21 29 2 
6 16 17 1 
7 16 29 2 
8 16 19 2 
9 17 18 1 
10 2 3 1 
11 2 13 2 
12 1 2 1 
13 1 15 2 
14 14 15 1 
15 20 21 1 
16 28 29 1 
17 18 28 2 
18 18 20 2 
19 10 11 1 
20 10 20 2 
21 10 30 2 
22 11 12 1 
23 11 28 2 
24 29 30 1 
25 4 5 1 
26 4 8 2 
27 8 9 1 
28 7 8 1 
29 25 26 1 
30 26 27 1 
31 24 26 2 
32 22 23 1 
33 22 27 2 
34 23 24 1 
35 5 6 1 
36 6 7 2 
ITEM: TIMESTEP
99400
ITEM: NUMBER OF ENTRIES
36
ITEM: BOX BOUNDS pp pp pp
-1.0000000000000000e+01 1.0000000000000000e+01
-1.0000000000000000e+01 1.0000000000000000e+01
-1.0000000000000000e+01 1.0000000000000000e+01
ITEM: ENTRIES index c_bondedatomid1 c_bondedatomid2 c_btype
1 13 14 1 
2 12 17 2 
3 12 21 2 
4 19 20 1 
5 21 29 2 
6 16 17 1 
7 16 29 2 
8 16 19 2 
9 17 18 1 
10 2 3 1 
11 2 13 2 
12 1 2 1 
13 1 15 2 
14 14 15 1 
15 20 21 1 
16 28 29 1 
17 18 28 2 
18 18 20 2 
19 10 11 1 
20 10 20 2 
21 10 30 2 
22 11 12 1 
23 11 28 2 
24 29 30 1 
25 4 5 1 
26 4 8 2 
27 8 9 1 
28 7 8 1 
29 25 26 1 
30 26 27 1 
31 24 26 2 
32 22 23 1 
33 22 27 2 
34 23 24 1 
35 5 6 1 
36 6 7 2 
ITEM: TIMESTEP
99500
ITEM: NUMBER OF ENTRIES
36
ITEM: BOX BOUNDS pp pp pp
-1.0000000000000000e+01 1.0000000000000000e+01
-1.0000000000000000e+01 1.0000000000000000e+01
-1.0000000000000000e+01 1.0000000000000000e+01
ITEM: ENTRIES index c_bondedatomid1 c_bondedatomid2 c_btype
1 13 14 1 
2 12 17 2 
3 12 21 2 
4 19 20 1 
5 21 29 2 
6 16 17 1 
7 16 29 2 
8 16 19 2 
9 17 18 1 
10 2 3 1 
11 2 13 2 
12 1 2 1 
13 1 15 2 
14 14 15 1 
15 20 21 1 
16 28 29 1 
17 18 28 2 
18 18 20 2 
19 10 11 1 
20 10 20 2 
21 10 30 2 
22 11 12 1 
23 11 28 2 
24 29 30 1 
25 4 5 1 
26 4 8 2 
27 8 9 1 
28 7 8 1 
29 25 26 1 
30 26 27 1 
31 24 26 2 
32 22 23 1 
33 22 27 2 
34 23 24 1 
35 5 6 1 
36 6 7 2 
ITEM: TIMESTEP
99600
ITEM: NUMBER OF ENTRIES
36
ITEM: BOX BOUNDS pp pp pp
-1.0000000000000000e+01 1.0000000000000000e+01
-1.0000000000000000e+01 1.0000000000000000e+01
-1.0000000000000000e+01 1.0000000000000000e+01
ITEM: ENTRIES index c_bondedatomid1 c_bondedatomid2 c_btype
1 13 14 1 
2 12 17 2 
3 12 21 2 
4 19 20 1 
5 21 29 2 
6 16 17 1 
7 16 29 2 
8 16 19 2 
9 17 18 1 
10 2 3 1 
11 2 13 2 
12 1 2 1 
13 1 15 2 
14 14 15 1 
15 20 21 1 
16 28 29 1 
17 18 28 2 
18 18 20 2 
19 10 11 1 
20 10 20 2 
21 10 30 2 
22 11 12 1 
23 11 28 2 
24 29 30 1 
25 4 5 1 
26 4 8 2 
27 8 9 1 
28 7 8 1 
29 25 26 1 
30 26 27 1 
31 24 26 2 
32 22 23 1 
33 22 27 2 
34 23 24 1 
35 5 6 1 
36 6 7 2 
ITEM: TIMESTEP
99700
ITEM: NUMBER OF ENTRIES
36
ITEM: BOX BOUNDS pp pp pp
-1.0000000000000000e+01 1.0000000000000000e+01
-1.0000000000000000e+01 1.0000000000000000e+01
-1.0000000000000000e+01 1.0000000000000000e+01
ITEM: ENTRIES index c_bondedatomid1 c_bondedatomid2 c_btype
1 13 14 1 
2 12 17 2 
3 12 21 2 
4 19 20 1 
5 21 29 2 
6 16 17 1 
7 16 29 2 
8 16 19 2 
9 17 18 1 
10 2 3 1 
11 2 13 2 
12 1 2 1 
13 1 15 2 
14 14 15 1 
15 20 21 1 
16 28 29 1 
17 18 28 2 
18 18 20 2 
19 10 11 1 
20 10 20 2 
21 10 30 2 
22 11 12 1 
23 11 28 2 
24 29 30 1 
25 4 5 1 
26 4 8 2 
27 8 9 1 
28 7 8 1 
29 25 26 1 
30 26 27 1 
31 24 26 2 
32 22 23 1 
33 22 27 2 
34 23 24 1 
35 5 6 1 
36 6 7 2 
ITEM: TIMESTEP
99800
ITEM: NUMBER OF ENTRIES
36
ITEM: BOX BOUNDS pp pp pp
-1.0000000000000000e+01 1.0000000000000000e+01
-1.0000000000000000e+01 1.0000000000000000e+01
-1.0000000000000000e+01 1.0000000000000000e+01
ITEM: ENTRIES index c_bondedatomid1 c_bondedatomid2 c_btype
1 13 14 1 
2 12 17 2 
3 12 21 2 
4 19 20 1 
5 21 29 2 
6 16 17 1 
7 16 29 2 
8 16 19 2 
9 17 18 1 
10 2 3 1 
11 2 13 2 
12 1 2 1 
13 1 15 2 
14 14 15 1 
15 20 21 1 
16 28 29 1 
17 18 28 2 
18 18 20 2 
19 10 11 1 
20 10 20 2 
21 10 30 2 
22 11 12 1 
23 11 28 2 
24 29 30 1 
25 4 5 1 
26 4 8 2 
27 8 9 1 
28 7 8 1 
29 25 26 1 
30 26 27 1 
31 24 26 2 
32 22 23 1 
33 22 27 2 
34 23 24 1 
35 5 6 1 
36 6 7 2 
ITEM: TIMESTEP
99900
ITEM: NUMBER OF ENTRIES
36
ITEM: BOX BOUNDS pp pp pp
-1.0000000000000000e+01 1.0000000000000000e+01
-1.0000000000000000e+01 1.0000000000000000e+01
-1.0000000000000000e+01 1.0000000000000000e+01
ITEM: ENTRIES index c_bondedatomid1 c_bondedatomid2 c_btype
1 13 14 1 
2 12 17 2 
3 12 21 2 
4 19 20 1 
5 21 29 2 
6 16 17 1 
7 16 29 2 
8 16 19 2 
9 17 18 1 
10 2 3 1 
11 2 13 2 
12 1 2 1 
13 1 15 2 
14 14 15 1 
15 20 21 1 
16 28 29 1 
17 18 28 2 
18 18 20 2 
19 10 11 1 
20 10 20 2 
21 10 30 2 
22 11 12 1 
23 11 28 2 
24 29 30 1 
25 4 5 1 
26 4 8 2 
27 8 9 1 
28 7 8 1 
29 25 26 1 
30 26 27 1 
31 24 26 2 
32 22 23 1 
33 22 27 2 
34 23 24 1 
35 5 6 1 
36 6 7 2 
ITEM: TIMESTEP
100000
ITEM: NUMBER OF ENTRIES
36
ITEM: BOX BOUNDS pp pp pp
-1.0000000000000000e+01 1.0000000000000000e+01
-1.0000000000000000e+01 1.0000000000000000e+01
-1.0000000000000000e+01 1.0000000000000000e+01
ITEM: ENTRIES index c_bondedatomid1 c_bondedatomid2 c_btype
1 13 14 1 
2 12 17 2 
3 12 21 2 
4 19 20 1 
5 21 29 2 
6 16 17 1 
7 16 29 2 
8 16 19 2 
9 17 18 1 
10 2 3 1 
11 2 13 2 
12 1 2 1 
13 1 15 2 
14 14 15 1 
15 20 21 1 
16 28 29 1 
17 18 28 2 
18 18 20 2 
19 10 11 1 
20 10 20 2 
21 10 30 2 
22 11 12 1 
23 11 28 2 
24 29 30 1 
25 4 5 1 
26 4 8 2 
27 8 9 1 
28 7 8 1 
29 25 26 1 
30 26 27 1 
31 24 26 2 
32 22 23 1 
33 22 27 2 
34 23 24 1 
35 5 6 1 
36 6 7 2 
