ITEM: TIMESTEP
0
ITEM: NUMBER OF ENTRIES
10
ITEM: BOX BOUNDS pp pp pp
-1.0000000000000000e+01 1.0000000000000000e+01
-1.0000000000000000e+01 1.0000000000000000e+01
-1.0000000000000000e+01 1.0000000000000000e+01
ITEM: ENTRIES index c_angles
1 13.9173 
2 115.056 
3 125.875 
4 57.1546 
5 93.8495 
6 152.705 
7 55.4554 
8 137.027 
9 29.4628 
10 110.247 
ITEM: TIMESTEP
100
ITEM: NUMBER OF ENTRIES
10
ITEM: BOX BOUNDS pp pp pp
-1.0000000000000000e+01 1.0000000000000000e+01
-1.0000000000000000e+01 1.0000000000000000e+01
-1.0000000000000000e+01 1.0000000000000000e+01
ITEM: ENTRIES index c_angles
1 11.2473 
2 118.426 
3 116.326 
4 53.6622 
5 88.503 
6 149.648 
7 59.3925 
8 135.42 
9 31.6179 
10 112.93 
ITEM: TIMESTEP
200
ITEM: NUMBER OF ENTRIES
10
ITEM: BOX BOUNDS pp pp pp
-1.0000000000000000e+01 1.0000000000000000e+01
-1.0000000000000000e+01 1.0000000000000000e+01
-1.0000000000000000e+01 1.0000000000000000e+01
ITEM: ENTRIES index c_angles
1 11.0456 
2 127.081 
3 110.804 
4 54.2321 
5 86.669 
6 147.847 
7 69.1616 
8 131.647 
9 37.5454 
10 118.238 
ITEM: TIMESTEP
300
ITEM: NUMBER OF ENTRIES
10
ITEM: BOX BOUNDS pp pp pp
-1.0000000000000000e+01 1.0000000000000000e+01
-1.0000000000000000e+01 1.0000000000000000e+01
-1.0000000000000000e+01 1.0000000000000000e+01
ITEM: ENTRIES index c_angles
1 11.391 
2 140.779 
3 113.496 
4 61.7542 
5 89.1192 
6 144.471 
7 88.0219 
8 124.287 
9 48.6072 
10 129.163 
ITEM: TIMESTEP
400
ITEM: NUMBER OF ENTRIES
10
ITEM: BOX BOUNDS pp pp pp
-1.0000000000000000e+01 1.0000000000000000e+01
-1.0000000000000000e+01 1.0000000000000000e+01
-1.0000000000000000e+01 1.0000000000000000e+01
ITEM: ENTRIES index c_angles
1 6.06427 
2 153.479 
3 118.545 
4 69.2895 
5 93.1757 
6 142.546 
7 107.851 
8 117.541 
9 64.795 
10 143.909 
ITEM: TIMESTEP
500
ITEM: NUMBER OF ENTRIES
10
ITEM: BOX BOUNDS pp pp pp
-1.0000000000000000e+01 1.0000000000000000e+01
-1.0000000000000000e+01 1.0000000000000000e+01
-1.0000000000000000e+01 1.0000000000000000e+01
ITEM: ENTRIES index c_angles
1 6.46561 
2 161.231 
3 122.044 
4 74.8742 
5 99.1655 
6 137.62 
7 122.735 
8 109.537 
9 82.9468 
10 158.881 
ITEM: TIMESTEP
600
ITEM: NUMBER OF ENTRIES
10
ITEM: BOX BOUNDS pp pp pp
-1.0000000000000000e+01 1.0000000000000000e+01
-1.0000000000000000e+01 1.0000000000000000e+01
-1.0000000000000000e+01 1.0000000000000000e+01
ITEM: ENTRIES index c_angles
1 9.50418 
2 159.233 
3 122.227 
4 77.8773 
5 103.544 
6 130.697 
7 126.143 
8 106.859 
9 96.8886 
10 173.633 
ITEM: TIMESTEP
700
ITEM: NUMBER OF ENTRIES
10
ITEM: BOX BOUNDS pp pp pp
-1.0000000000000000e+01 1.0000000000000000e+01
-1.0000000000000000e+01 1.0000000000000000e+01
-1.0000000000000000e+01 1.0000000000000000e+01
ITEM: ENTRIES index c_angles
1 16.3002 
2 148.783 
3 118.089 
4 86.4386 
5 100.916 
6 123.936 
7 115.072 
8 109.036 
9 103.411 
10 151.825 
ITEM: TIMESTEP
800
ITEM: NUMBER OF ENTRIES
10
ITEM: BOX BOUNDS pp pp pp
-1.0000000000000000e+01 1.0000000000000000e+01
-1.0000000000000000e+01 1.0000000000000000e+01
-1.0000000000000000e+01 1.0000000000000000e+01
ITEM: ENTRIES index c_angles
1 27.1411 
2 132.375 
3 113.612 
4 98.3254 
5 95.8662 
6 120.946 
7 98.1798 
8 116.489 
9 96.9981 
10 130.465 
ITEM: TIMESTEP
900
ITEM: NUMBER OF ENTRIES
10
ITEM: BOX BOUNDS pp pp pp
-1.0000000000000000e+01 1.0000000000000000e+01
-1.0000000000000000e+01 1.0000000000000000e+01
-1.0000000000000000e+01 1.0000000000000000e+01
ITEM: ENTRIES index c_angles
1 36.5967 
2 115.543 
3 95.3267 
4 114.029 
5 97.6235 
6 122.386 
7 87.8003 
8 130.971 
9 90.4759 
10 120.597 
ITEM: TIMESTEP
1000
ITEM: NUMBER OF ENTRIES
10
ITEM: BOX BOUNDS pp pp pp
-1.0000000000000000e+01 1.0000000000000000e+01
-1.0000000000000000e+01 1.0000000000000000e+01
-1.0000000000000000e+01 1.0000000000000000e+01
ITEM: ENTRIES index c_angles
1 51.8282 
2 96.8316 
3 82.4177 
4 130.175 
5 100.005 
6 113.647 
7 78.8949 
8 148.129 
9 86.9435 
10 119.082 
ITEM: TIMESTEP
1100
ITEM: NUMBER OF ENTRIES
10
ITEM: BOX BOUNDS pp pp pp
-1.0000000000000000e+01 1.0000000000000000e+01
-1.0000000000000000e+01 1.0000000000000000e+01
-1.0000000000000000e+01 1.0000000000000000e+01
ITEM: ENTRIES index c_angles
1 75.0169 
2 77.0607 
3 137.785 
4 100.611 
5 76.6239 
6 71.2044 
7 156.313 
8 92.5978 
9 84.7777 
10 123.221 
ITEM: TIMESTEP
1200
ITEM: NUMBER OF ENTRIES
10
ITEM: BOX BOUNDS pp pp pp
-1.0000000000000000e+01 1.0000000000000000e+01
-1.0000000000000000e+01 1.0000000000000000e+01
-1.0000000000000000e+01 1.0000000000000000e+01
ITEM: ENTRIES index c_angles
1 105.981 
2 56.1735 
3 141.762 
4 99.3365 
5 72.7565 
6 63.2397 
7 142.509 
8 71.386 
9 85.4298 
10 125.369 
ITEM: TIMESTEP
1300
ITEM: NUMBER OF ENTRIES
10
ITEM: BOX BOUNDS pp pp pp
-1.0000000000000000e+01 1.0000000000000000e+01
-1.0000000000000000e+01 1.0000000000000000e+01
-1.0000000000000000e+01 1.0000000000000000e+01
ITEM: ENTRIES index c_angles
1 136.31 
2 37.2267 
3 135.909 
4 105.322 
5 72.536 
6 58.4145 
7 117.537 
8 53.1426 
9 89.5876 
10 128.966 
ITEM: TIMESTEP
1400
ITEM: NUMBER OF ENTRIES
10
ITEM: BOX BOUNDS pp pp pp
-1.0000000000000000e+01 1.0000000000000000e+01
-1.0000000000000000e+01 1.0000000000000000e+01
-1.0000000000000000e+01 1.0000000000000000e+01
ITEM: ENTRIES index c_angles
1 162.155 
2 25.7975 
3 131.157 
4 112.993 
5 78.5195 
6 55.0208 
7 83.02 
8 38.8422 
9 99.0055 
10 130.264 
ITEM: TIMESTEP
1500
ITEM: NUMBER OF ENTRIES
10
ITEM: BOX BOUNDS pp pp pp
-1.0000000000000000e+01 1.0000000000000000e+01
-1.0000000000000000e+01 1.0000000000000000e+01
-1.0000000000000000e+01 1.0000000000000000e+01
ITEM: ENTRIES index c_angles
1 166.351 
2 26.99 
3 125.986 
4 126.916 
5 84.9022 
6 54.5429 
7 56.8784 
8 33.0122 
9 109.686 
10 133.855 
ITEM: TIMESTEP
1600
ITEM: NUMBER OF ENTRIES
10
ITEM: BOX BOUNDS pp pp pp
-1.0000000000000000e+01 1.0000000000000000e+01
-1.0000000000000000e+01 1.0000000000000000e+01
-1.0000000000000000e+01 1.0000000000000000e+01
ITEM: ENTRIES index c_angles
1 148.929 
2 38.9764 
3 124.242 
4 137.854 
5 94.3725 
6 58.4271 
7 43.5695 
8 36.9686 
9 114.354 
10 136.593 
ITEM: TIMESTEP
1700
ITEM: NUMBER OF ENTRIES
10
ITEM: BOX BOUNDS pp pp pp
-1.0000000000000000e+01 1.0000000000000000e+01
-1.0000000000000000e+01 1.0000000000000000e+01
-1.0000000000000000e+01 1.0000000000000000e+01
ITEM: ENTRIES index c_angles
1 133.741 
2 57.4316 
3 125.923 
4 145.435 
5 109.706 
6 65.1719 
7 40.6422 
8 50.8656 
9 113.906 
10 144.305 
ITEM: TIMESTEP
1800
ITEM: NUMBER OF ENTRIES
10
ITEM: BOX BOUNDS pp pp pp
-1.0000000000000000e+01 1.0000000000000000e+01
-1.0000000000000000e+01 1.0000000000000000e+01
-1.0000000000000000e+01 1.0000000000000000e+01
ITEM: ENTRIES index c_angles
1 126.159 
2 74.55 
3 124.025 
4 154.801 
5 138.118 
6 74.1033 
7 41.9703 
8 68.1625 
9 113.202 
10 148.925 
ITEM: TIMESTEP
1900
ITEM: NUMBER OF ENTRIES
10
ITEM: BOX BOUNDS pp pp pp
-1.0000000000000000e+01 1.0000000000000000e+01
-1.0000000000000000e+01 1.0000000000000000e+01
-1.0000000000000000e+01 1.0000000000000000e+01
ITEM: ENTRIES index c_angles
1 127.174 
2 82.9129 
3 130.314 
4 163.201 
5 170.412 
6 81.1763 
7 47.8069 
8 82.1375 
9 113.252 
10 150.589 
ITEM: TIMESTEP
2000
ITEM: NUMBER OF ENTRIES
10
ITEM: BOX BOUNDS pp pp pp
-1.0000000000000000e+01 1.0000000000000000e+01
-1.0000000000000000e+01 1.0000000000000000e+01
-1.0000000000000000e+01 1.0000000000000000e+01
ITEM: ENTRIES index c_angles
1 133.825 
2 85.0098 
3 141.635 
4 166.689 
5 160.711 
6 83.3392 
7 63.0485 
8 96.4505 
9 111.683 
10 146.72 
ITEM: TIMESTEP
2100
ITEM: NUMBER OF ENTRIES
10
ITEM: BOX BOUNDS pp pp pp
-1.0000000000000000e+01 1.0000000000000000e+01
-1.0000000000000000e+01 1.0000000000000000e+01
-1.0000000000000000e+01 1.0000000000000000e+01
ITEM: ENTRIES index c_angles
1 142.523 
2 87.4834 
3 154.465 
4 158.938 
5 136.534 
6 87.5724 
7 96.1646 
8 104.866 
9 110.856 
10 147.309 
ITEM: TIMESTEP
2200
ITEM: NUMBER OF ENTRIES
10
ITEM: BOX BOUNDS pp pp pp
-1.0000000000000000e+01 1.0000000000000000e+01
-1.0000000000000000e+01 1.0000000000000000e+01
-1.0000000000000000e+01 1.0000000000000000e+01
ITEM: ENTRIES index c_angles
1 153.664 
2 92.576 
3 162.189 
4 148.028 
5 120.579 
6 97.0052 
7 149.236 
8 108.223 
9 106.727 
10 142.976 
ITEM: TIMESTEP
2300
ITEM: NUMBER OF ENTRIES
10
ITEM: BOX BOUNDS pp pp pp
-1.0000000000000000e+01 1.0000000000000000e+01
-1.0000000000000000e+01 1.0000000000000000e+01
-1.0000000000000000e+01 1.0000000000000000e+01
ITEM: ENTRIES index c_angles
1 155.026 
2 97.7065 
3 155.978 
4 138.794 
5 109.288 
6 110.263 
7 147.412 
8 111.133 
9 108.294 
10 139.575 
ITEM: TIMESTEP
2400
ITEM: NUMBER OF ENTRIES
10
ITEM: BOX BOUNDS pp pp pp
-1.0000000000000000e+01 1.0000000000000000e+01
-1.0000000000000000e+01 1.0000000000000000e+01
-1.0000000000000000e+01 1.0000000000000000e+01
ITEM: ENTRIES index c_angles
1 132.97 
2 108.581 
3 145.558 
4 131.805 
5 97.0363 
6 126.537 
7 119.48 
8 111.45 
9 109.84 
10 139.878 
ITEM: TIMESTEP
2500
ITEM: NUMBER OF ENTRIES
10
ITEM: BOX BOUNDS pp pp pp
-1.0000000000000000e+01 1.0000000000000000e+01
-1.0000000000000000e+01 1.0000000000000000e+01
-1.0000000000000000e+01 1.0000000000000000e+01
ITEM: ENTRIES index c_angles
1 111.763 
2 129.525 
3 135.223 
4 124.924 
5 87.6891 
6 133.664 
7 98.445 
8 106.426 
9 105.238 
10 136.301 
ITEM: TIMESTEP
2600
ITEM: NUMBER OF ENTRIES
10
ITEM: BOX BOUNDS pp pp pp
-1.0000000000000000e+01 1.0000000000000000e+01
-1.0000000000000000e+01 1.0000000000000000e+01
-1.0000000000000000e+01 1.0000000000000000e+01
ITEM: ENTRIES index c_angles
1 106.427 
2 144.643 
3 128.449 
4 107.276 
5 79.365 
6 117.762 
7 85.6005 
8 99.6218 
9 97.9381 
10 127.449 
ITEM: TIMESTEP
2700
ITEM: NUMBER OF ENTRIES
10
ITEM: BOX BOUNDS pp pp pp
-1.0000000000000000e+01 1.0000000000000000e+01
-1.0000000000000000e+01 1.0000000000000000e+01
-1.0000000000000000e+01 1.0000000000000000e+01
ITEM: ENTRIES index c_angles
1 104.257 
2 158.913 
3 125.751 
4 83.4001 
5 70.3365 
6 102.658 
7 77.8392 
8 92.2153 
9 87.4573 
10 122.302 
ITEM: TIMESTEP
2800
ITEM: NUMBER OF ENTRIES
10
ITEM: BOX BOUNDS pp pp pp
-1.0000000000000000e+01 1.0000000000000000e+01
-1.0000000000000000e+01 1.0000000000000000e+01
-1.0000000000000000e+01 1.0000000000000000e+01
ITEM: ENTRIES index c_angles
1 97.7391 
2 172.051 
3 115.633 
4 66.6608 
5 68.7932 
6 91.0077 
7 77.7484 
8 87.7339 
9 80.856 
10 115.856 
ITEM: TIMESTEP
2900
ITEM: NUMBER OF ENTRIES
10
ITEM: BOX BOUNDS pp pp pp
-1.0000000000000000e+01 1.0000000000000000e+01
-1.0000000000000000e+01 1.0000000000000000e+01
-1.0000000000000000e+01 1.0000000000000000e+01
ITEM: ENTRIES index c_angles
1 92.0774 
2 171.261 
3 106.356 
4 55.2353 
5 73.1546 
6 85.8834 
7 80.9858 
8 84.7347 
9 75.9261 
10 109.425 
ITEM: TIMESTEP
3000
ITEM: NUMBER OF ENTRIES
10
ITEM: BOX BOUNDS pp pp pp
-1.0000000000000000e+01 1.0000000000000000e+01
-1.0000000000000000e+01 1.0000000000000000e+01
-1.0000000000000000e+01 1.0000000000000000e+01
ITEM: ENTRIES index c_angles
1 81.5509 
2 156.028 
3 99.342 
4 46.4134 
5 73.6384 
6 82.5897 
7 82.069 
8 81.7801 
9 68.4478 
10 108.992 
ITEM: TIMESTEP
3100
ITEM: NUMBER OF ENTRIES
10
ITEM: BOX BOUNDS pp pp pp
-1.0000000000000000e+01 1.0000000000000000e+01
-1.0000000000000000e+01 1.0000000000000000e+01
-1.0000000000000000e+01 1.0000000000000000e+01
ITEM: ENTRIES index c_angles
1 69.9358 
2 136.324 
3 97.0253 
4 41.4433 
5 68.2295 
6 82.2146 
7 83.1686 
8 85.2801 
9 63.128 
10 110.654 
ITEM: TIMESTEP
3200
ITEM: NUMBER OF ENTRIES
10
ITEM: BOX BOUNDS pp pp pp
-1.0000000000000000e+01 1.0000000000000000e+01
-1.0000000000000000e+01 1.0000000000000000e+01
-1.0000000000000000e+01 1.0000000000000000e+01
ITEM: ENTRIES index c_angles
1 119.285 
2 67.5467 
3 43.2419 
4 66.4673 
5 98.0994 
6 87.1894 
7 86.0629 
8 61.1246 
9 87.7893 
10 112.7 
ITEM: TIMESTEP
3300
ITEM: NUMBER OF ENTRIES
10
ITEM: BOX BOUNDS pp pp pp
-1.0000000000000000e+01 1.0000000000000000e+01
-1.0000000000000000e+01 1.0000000000000000e+01
-1.0000000000000000e+01 1.0000000000000000e+01
ITEM: ENTRIES index c_angles
1 106.041 
2 69.9946 
3 57.7213 
4 65.6784 
5 103.526 
6 88.5498 
7 82.2967 
8 60.3162 
9 94.2466 
10 118.006 
ITEM: TIMESTEP
3400
ITEM: NUMBER OF ENTRIES
10
ITEM: BOX BOUNDS pp pp pp
-1.0000000000000000e+01 1.0000000000000000e+01
-1.0000000000000000e+01 1.0000000000000000e+01
-1.0000000000000000e+01 1.0000000000000000e+01
ITEM: ENTRIES index c_angles
1 98.4747 
2 69.8215 
3 70.6538 
4 63.708 
5 108.609 
6 85.1595 
7 75.7428 
8 64.3258 
9 94.3472 
10 128.706 
ITEM: TIMESTEP
3500
ITEM: NUMBER OF ENTRIES
10
ITEM: BOX BOUNDS pp pp pp
-1.0000000000000000e+01 1.0000000000000000e+01
-1.0000000000000000e+01 1.0000000000000000e+01
-1.0000000000000000e+01 1.0000000000000000e+01
ITEM: ENTRIES index c_angles
1 94.2138 
2 61.0989 
3 64.5458 
4 66.7737 
5 117.742 
6 81.9593 
7 74.2208 
8 78.4207 
9 92.2441 
10 138.343 
ITEM: TIMESTEP
3600
ITEM: NUMBER OF ENTRIES
10
ITEM: BOX BOUNDS pp pp pp
-1.0000000000000000e+01 1.0000000000000000e+01
-1.0000000000000000e+01 1.0000000000000000e+01
-1.0000000000000000e+01 1.0000000000000000e+01
ITEM: ENTRIES index c_angles
1 95.1688 
2 54.5079 
3 51.4265 
4 73.8801 
5 131.709 
6 82.0106 
7 74.1018 
8 90.5467 
9 93.7237 
10 150.72 
ITEM: TIMESTEP
3700
ITEM: NUMBER OF ENTRIES
10
ITEM: BOX BOUNDS pp pp pp
-1.0000000000000000e+01 1.0000000000000000e+01
-1.0000000000000000e+01 1.0000000000000000e+01
-1.0000000000000000e+01 1.0000000000000000e+01
ITEM: ENTRIES index c_angles
1 97.4453 
2 56.7353 
3 41.3716 
4 90.6241 
5 153.836 
6 85.1244 
7 80.1609 
8 81.0075 
9 95.5894 
10 160.953 
ITEM: TIMESTEP
3800
ITEM: NUMBER OF ENTRIES
10
ITEM: BOX BOUNDS pp pp pp
-1.0000000000000000e+01 1.0000000000000000e+01
-1.0000000000000000e+01 1.0000000000000000e+01
-1.0000000000000000e+01 1.0000000000000000e+01
ITEM: ENTRIES index c_angles
1 96.8518 
2 59.3336 
3 35.6023 
4 112.093 
5 165.284 
6 89.1285 
7 89.8896 
8 71.246 
9 98.4731 
10 164.797 
ITEM: TIMESTEP
3900
ITEM: NUMBER OF ENTRIES
10
ITEM: BOX BOUNDS pp pp pp
-1.0000000000000000e+01 1.0000000000000000e+01
-1.0000000000000000e+01 1.0000000000000000e+01
-1.0000000000000000e+01 1.0000000000000000e+01
ITEM: ENTRIES index c_angles
1 94.9331 
2 61.0359 
3 35.9422 
4 131.524 
5 150.623 
6 92.6007 
7 106.872 
8 64.1216 
9 100.565 
10 162.833 
ITEM: TIMESTEP
4000
ITEM: NUMBER OF ENTRIES
10
ITEM: BOX BOUNDS pp pp pp
-1.0000000000000000e+01 1.0000000000000000e+01
-1.0000000000000000e+01 1.0000000000000000e+01
-1.0000000000000000e+01 1.0000000000000000e+01
ITEM: ENTRIES index c_angles
1 91.3974 
2 62.949 
3 41.266 
4 131.302 
5 143.761 
6 95.756 
7 121.981 
8 61.8567 
9 105.706 
10 153.403 
ITEM: TIMESTEP
4100
ITEM: NUMBER OF ENTRIES
10
ITEM: BOX BOUNDS pp pp pp
-1.0000000000000000e+01 1.0000000000000000e+01
-1.0000000000000000e+01 1.0000000000000000e+01
-1.0000000000000000e+01 1.0000000000000000e+01
ITEM: ENTRIES index c_angles
1 63.3983 
2 82.816 
3 138.993 
4 118.096 
5 54.1221 
6 99.5577 
7 128.303 
8 62.3723 
9 113.696 
10 143.5 
ITEM: TIMESTEP
4200
ITEM: NUMBER OF ENTRIES
10
ITEM: BOX BOUNDS pp pp pp
-1.0000000000000000e+01 1.0000000000000000e+01
-1.0000000000000000e+01 1.0000000000000000e+01
-1.0000000000000000e+01 1.0000000000000000e+01
ITEM: ENTRIES index c_angles
1 63.8298 
2 74.6733 
3 137.107 
4 109.728 
5 71.1568 
6 99.6457 
7 114.274 
8 67.2532 
9 121.929 
10 133.419 
ITEM: TIMESTEP
4300
ITEM: NUMBER OF ENTRIES
10
ITEM: BOX BOUNDS pp pp pp
-1.0000000000000000e+01 1.0000000000000000e+01
-1.0000000000000000e+01 1.0000000000000000e+01
-1.0000000000000000e+01 1.0000000000000000e+01
ITEM: ENTRIES index c_angles
1 69.9752 
2 68.4332 
3 137.14 
4 106.364 
5 94.4425 
6 105.243 
7 92.2933 
8 74.552 
9 131.033 
10 122.252 
ITEM: TIMESTEP
4400
ITEM: NUMBER OF ENTRIES
10
ITEM: BOX BOUNDS pp pp pp
-1.0000000000000000e+01 1.0000000000000000e+01
-1.0000000000000000e+01 1.0000000000000000e+01
-1.0000000000000000e+01 1.0000000000000000e+01
ITEM: ENTRIES index c_angles
1 73.9475 
2 63.5569 
3 136.69 
4 104.392 
5 115.607 
6 114.928 
7 73.1598 
8 83.3909 
9 139.415 
10 117.408 
ITEM: TIMESTEP
4500
ITEM: NUMBER OF ENTRIES
10
ITEM: BOX BOUNDS pp pp pp
-1.0000000000000000e+01 1.0000000000000000e+01
-1.0000000000000000e+01 1.0000000000000000e+01
-1.0000000000000000e+01 1.0000000000000000e+01
ITEM: ENTRIES index c_angles
1 79.6759 
2 62.5495 
3 133.044 
4 101.244 
5 124.729 
6 128.859 
7 61.7312 
8 102.303 
9 136.927 
10 114.078 
ITEM: TIMESTEP
4600
ITEM: NUMBER OF ENTRIES
10
ITEM: BOX BOUNDS pp pp pp
-1.0000000000000000e+01 1.0000000000000000e+01
-1.0000000000000000e+01 1.0000000000000000e+01
-1.0000000000000000e+01 1.0000000000000000e+01
ITEM: ENTRIES index c_angles
1 84.2928 
2 65.6753 
3 130.391 
4 98.5973 
5 127.329 
6 140.291 
7 49.1029 
8 116.888 
9 125.057 
10 112.342 
ITEM: TIMESTEP
4700
ITEM: NUMBER OF ENTRIES
10
ITEM: BOX BOUNDS pp pp pp
-1.0000000000000000e+01 1.0000000000000000e+01
-1.0000000000000000e+01 1.0000000000000000e+01
-1.0000000000000000e+01 1.0000000000000000e+01
ITEM: ENTRIES index c_angles
1 91.5767 
2 71.0244 
3 128.985 
4 97.6962 
5 130.468 
6 146.45 
7 41.2816 
8 116.598 
9 105.03 
10 113.506 
ITEM: TIMESTEP
4800
ITEM: NUMBER OF ENTRIES
10
ITEM: BOX BOUNDS pp pp pp
-1.0000000000000000e+01 1.0000000000000000e+01
-1.0000000000000000e+01 1.0000000000000000e+01
-1.0000000000000000e+01 1.0000000000000000e+01
ITEM: ENTRIES index c_angles
1 93.804 
2 73.9748 
3 126.592 
4 95.6659 
5 134.625 
6 145.721 
7 35.0715 
8 108.732 
9 83.383 
10 117.253 
ITEM: TIMESTEP
4900
ITEM: NUMBER OF ENTRIES
10
ITEM: BOX BOUNDS pp pp pp
-1.0000000000000000e+01 1.0000000000000000e+01
-1.0000000000000000e+01 1.0000000000000000e+01
-1.0000000000000000e+01 1.0000000000000000e+01
ITEM: ENTRIES index c_angles
1 93.8208 
2 74.8346 
3 128.917 
4 88.2885 
5 140.494 
6 142.751 
7 29.2121 
8 92.6372 
9 66.7151 
10 122.744 
ITEM: TIMESTEP
5000
ITEM: NUMBER OF ENTRIES
10
ITEM: BOX BOUNDS pp pp pp
-1.0000000000000000e+01 1.0000000000000000e+01
-1.0000000000000000e+01 1.0000000000000000e+01
-1.0000000000000000e+01 1.0000000000000000e+01
ITEM: ENTRIES index c_angles
1 100.385 
2 79.2044 
3 133.5 
4 77.1847 
5 140.114 
6 141.472 
7 23.059 
8 75.3254 
9 60.3501 
10 127.288 
ITEM: TIMESTEP
5100
ITEM: NUMBER OF ENTRIES
10
ITEM: BOX BOUNDS pp pp pp
-1.0000000000000000e+01 1.0000000000000000e+01
-1.0000000000000000e+01 1.0000000000000000e+01
-1.0000000000000000e+01 1.0000000000000000e+01
ITEM: ENTRIES index c_angles
1 108.517 
2 88.0272 
3 138.705 
4 75.0233 
5 136.386 
6 138.684 
7 18.6172 
8 65.988 
9 64.0771 
10 133.965 
ITEM: TIMESTEP
5200
ITEM: NUMBER OF ENTRIES
10
ITEM: BOX BOUNDS pp pp pp
-1.0000000000000000e+01 1.0000000000000000e+01
-1.0000000000000000e+01 1.0000000000000000e+01
-1.0000000000000000e+01 1.0000000000000000e+01
ITEM: ENTRIES index c_angles
1 119.217 
2 104.21 
3 129.844 
4 79.3794 
5 150.089 
6 139.513 
7 62.1434 
8 72.8115 
9 20.7286 
10 141.559 
ITEM: TIMESTEP
5300
ITEM: NUMBER OF ENTRIES
10
ITEM: BOX BOUNDS pp pp pp
-1.0000000000000000e+01 1.0000000000000000e+01
-1.0000000000000000e+01 1.0000000000000000e+01
-1.0000000000000000e+01 1.0000000000000000e+01
ITEM: ENTRIES index c_angles
1 127.538 
2 118.652 
3 123.446 
4 83.9152 
5 137.529 
6 147.713 
7 61.7339 
8 84.6068 
9 29.2634 
10 148.486 
ITEM: TIMESTEP
5400
ITEM: NUMBER OF ENTRIES
10
ITEM: BOX BOUNDS pp pp pp
-1.0000000000000000e+01 1.0000000000000000e+01
-1.0000000000000000e+01 1.0000000000000000e+01
-1.0000000000000000e+01 1.0000000000000000e+01
ITEM: ENTRIES index c_angles
1 136.63 
2 129.068 
3 118.039 
4 88.5897 
5 117.836 
6 160.491 
7 66.3386 
8 98.7937 
9 42.9137 
10 144.197 
ITEM: TIMESTEP
5500
ITEM: NUMBER OF ENTRIES
10
ITEM: BOX BOUNDS pp pp pp
-1.0000000000000000e+01 1.0000000000000000e+01
-1.0000000000000000e+01 1.0000000000000000e+01
-1.0000000000000000e+01 1.0000000000000000e+01
ITEM: ENTRIES index c_angles
1 139.782 
2 139.177 
3 115.884 
4 89.3812 
5 107.356 
6 170.885 
7 75.9264 
8 110.381 
9 59.5733 
10 111.282 
ITEM: TIMESTEP
5600
ITEM: NUMBER OF ENTRIES
10
ITEM: BOX BOUNDS pp pp pp
-1.0000000000000000e+01 1.0000000000000000e+01
-1.0000000000000000e+01 1.0000000000000000e+01
-1.0000000000000000e+01 1.0000000000000000e+01
ITEM: ENTRIES index c_angles
1 154.656 
2 146.799 
3 116.042 
4 90.0706 
5 103.741 
6 168.943 
7 83.2665 
8 106.009 
9 77.509 
10 78.939 
ITEM: TIMESTEP
5700
ITEM: NUMBER OF ENTRIES
10
ITEM: BOX BOUNDS pp pp pp
-1.0000000000000000e+01 1.0000000000000000e+01
-1.0000000000000000e+01 1.0000000000000000e+01
-1.0000000000000000e+01 1.0000000000000000e+01
ITEM: ENTRIES index c_angles
1 168.463 
2 159.233 
3 116.304 
4 88.085 
5 99.5304 
6 161.033 
7 89.2961 
8 93.0423 
9 86.6904 
10 53.1965 
ITEM: TIMESTEP
5800
ITEM: NUMBER OF ENTRIES
10
ITEM: BOX BOUNDS pp pp pp
-1.0000000000000000e+01 1.0000000000000000e+01
-1.0000000000000000e+01 1.0000000000000000e+01
-1.0000000000000000e+01 1.0000000000000000e+01
ITEM: ENTRIES index c_angles
1 168.888 
2 159.77 
3 117.754 
4 88.0701 
5 92.0388 
6 157.503 
7 96.1739 
8 85.3345 
9 90.8529 
10 38.3937 
ITEM: TIMESTEP
5900
ITEM: NUMBER OF ENTRIES
10
ITEM: BOX BOUNDS pp pp pp
-1.0000000000000000e+01 1.0000000000000000e+01
-1.0000000000000000e+01 1.0000000000000000e+01
-1.0000000000000000e+01 1.0000000000000000e+01
ITEM: ENTRIES index c_angles
1 152.704 
2 152.4 
3 110.606 
4 87.4262 
5 83.1128 
6 158.403 
7 98.8579 
8 78.1661 
9 89.4441 
10 30.1043 
ITEM: TIMESTEP
6000
ITEM: NUMBER OF ENTRIES
10
ITEM: BOX BOUNDS pp pp pp
-1.0000000000000000e+01 1.0000000000000000e+01
-1.0000000000000000e+01 1.0000000000000000e+01
-1.0000000000000000e+01 1.0000000000000000e+01
ITEM: ENTRIES index c_angles
1 134.8 
2 150.001 
3 100.407 
4 86.048 
5 77.6178 
6 159.818 
7 107.731 
8 69.4297 
9 89.3843 
10 24.8203 
ITEM: TIMESTEP
6100
ITEM: NUMBER OF ENTRIES
10
ITEM: BOX BOUNDS pp pp pp
-1.0000000000000000e+01 1.0000000000000000e+01
-1.0000000000000000e+01 1.0000000000000000e+01
-1.0000000000000000e+01 1.0000000000000000e+01
ITEM: ENTRIES index c_angles
1 117.99 
2 150.195 
3 89.6962 
4 89.8281 
5 75.2737 
6 162.08 
7 119.694 
8 61.6876 
9 90.8301 
10 20.0416 
ITEM: TIMESTEP
6200
ITEM: NUMBER OF ENTRIES
10
ITEM: BOX BOUNDS pp pp pp
-1.0000000000000000e+01 1.0000000000000000e+01
-1.0000000000000000e+01 1.0000000000000000e+01
-1.0000000000000000e+01 1.0000000000000000e+01
ITEM: ENTRIES index c_angles
1 150.123 
2 81.7258 
3 93.5348 
4 105.32 
5 74.2604 
6 165.9 
7 95.4319 
8 133.023 
9 48.9923 
10 18.5684 
ITEM: TIMESTEP
6300
ITEM: NUMBER OF ENTRIES
10
ITEM: BOX BOUNDS pp pp pp
-1.0000000000000000e+01 1.0000000000000000e+01
-1.0000000000000000e+01 1.0000000000000000e+01
-1.0000000000000000e+01 1.0000000000000000e+01
ITEM: ENTRIES index c_angles
1 146.706 
2 69.3201 
3 91.1244 
4 98.262 
5 77.3947 
6 161.524 
7 102.966 
8 144.601 
9 30.5979 
10 19.7108 
ITEM: TIMESTEP
6400
ITEM: NUMBER OF ENTRIES
10
ITEM: BOX BOUNDS pp pp pp
-1.0000000000000000e+01 1.0000000000000000e+01
-1.0000000000000000e+01 1.0000000000000000e+01
-1.0000000000000000e+01 1.0000000000000000e+01
ITEM: ENTRIES index c_angles
1 136.84 
2 59.7918 
3 83.1601 
4 97.2783 
5 82.9375 
6 148.637 
7 113.351 
8 153.522 
9 16.7658 
10 22.848 
ITEM: TIMESTEP
6500
ITEM: NUMBER OF ENTRIES
10
ITEM: BOX BOUNDS pp pp pp
-1.0000000000000000e+01 1.0000000000000000e+01
-1.0000000000000000e+01 1.0000000000000000e+01
-1.0000000000000000e+01 1.0000000000000000e+01
ITEM: ENTRIES index c_angles
1 128.229 
2 54.7002 
3 80.8721 
4 96.7304 
5 85.6582 
6 139.942 
7 129.313 
8 157.288 
9 14.7604 
10 27.0345 
ITEM: TIMESTEP
6600
ITEM: NUMBER OF ENTRIES
10
ITEM: BOX BOUNDS pp pp pp
-1.0000000000000000e+01 1.0000000000000000e+01
-1.0000000000000000e+01 1.0000000000000000e+01
-1.0000000000000000e+01 1.0000000000000000e+01
ITEM: ENTRIES index c_angles
1 117.339 
2 51.8285 
3 82.0815 
4 98.5891 
5 84.3969 
6 138.728 
7 138.698 
8 155.862 
9 21.5381 
10 28.3482 
ITEM: TIMESTEP
6700
ITEM: NUMBER OF ENTRIES
10
ITEM: BOX BOUNDS pp pp pp
-1.0000000000000000e+01 1.0000000000000000e+01
-1.0000000000000000e+01 1.0000000000000000e+01
-1.0000000000000000e+01 1.0000000000000000e+01
ITEM: ENTRIES index c_angles
1 110.034 
2 46.6912 
3 78.7976 
4 101.153 
5 84.2355 
6 136.008 
7 125.994 
8 154.573 
9 28.5136 
10 22.3362 
ITEM: TIMESTEP
6800
ITEM: NUMBER OF ENTRIES
10
ITEM: BOX BOUNDS pp pp pp
-1.0000000000000000e+01 1.0000000000000000e+01
-1.0000000000000000e+01 1.0000000000000000e+01
-1.0000000000000000e+01 1.0000000000000000e+01
ITEM: ENTRIES index c_angles
1 111.57 
2 41.7912 
3 77.226 
4 107.824 
5 86.0803 
6 135.413 
7 102.376 
8 154.336 
9 39.743 
10 16.5317 
ITEM: TIMESTEP
6900
ITEM: NUMBER OF ENTRIES
10
ITEM: BOX BOUNDS pp pp pp
-1.0000000000000000e+01 1.0000000000000000e+01
-1.0000000000000000e+01 1.0000000000000000e+01
-1.0000000000000000e+01 1.0000000000000000e+01
ITEM: ENTRIES index c_angles
1 120.694 
2 36.2772 
3 77.6601 
4 121.324 
5 85.7058 
6 137.77 
7 92.711 
8 149.793 
9 52.4231 
10 16.3124 
ITEM: TIMESTEP
7000
ITEM: NUMBER OF ENTRIES
10
ITEM: BOX BOUNDS pp pp pp
-1.0000000000000000e+01 1.0000000000000000e+01
-1.0000000000000000e+01 1.0000000000000000e+01
-1.0000000000000000e+01 1.0000000000000000e+01
ITEM: ENTRIES index c_angles
1 122.973 
2 25.8035 
3 80.1642 
4 121.856 
5 90.2583 
6 142.126 
7 83.1532 
8 148.849 
9 70.029 
10 20.5372 
ITEM: TIMESTEP
7100
ITEM: NUMBER OF ENTRIES
10
ITEM: BOX BOUNDS pp pp pp
-1.0000000000000000e+01 1.0000000000000000e+01
-1.0000000000000000e+01 1.0000000000000000e+01
-1.0000000000000000e+01 1.0000000000000000e+01
ITEM: ENTRIES index c_angles
1 119.77 
2 81.2895 
3 98.6978 
4 103.446 
5 16.2457 
6 149.77 
7 79.6694 
8 148.661 
9 89.4813 
10 24.8293 
ITEM: TIMESTEP
7200
ITEM: NUMBER OF ENTRIES
10
ITEM: BOX BOUNDS pp pp pp
-1.0000000000000000e+01 1.0000000000000000e+01
-1.0000000000000000e+01 1.0000000000000000e+01
-1.0000000000000000e+01 1.0000000000000000e+01
ITEM: ENTRIES index c_angles
1 115.803 
2 82.4392 
3 110.173 
4 91.0957 
5 10.485 
6 151.524 
7 80.6344 
8 152.073 
9 106.657 
10 26.6473 
ITEM: TIMESTEP
7300
ITEM: NUMBER OF ENTRIES
10
ITEM: BOX BOUNDS pp pp pp
-1.0000000000000000e+01 1.0000000000000000e+01
-1.0000000000000000e+01 1.0000000000000000e+01
-1.0000000000000000e+01 1.0000000000000000e+01
ITEM: ENTRIES index c_angles
1 113.26 
2 89.5864 
3 116.597 
4 84.6208 
5 7.28738 
6 152.407 
7 82.1154 
8 158.684 
9 127.104 
10 26.9157 
ITEM: TIMESTEP
7400
ITEM: NUMBER OF ENTRIES
10
ITEM: BOX BOUNDS pp pp pp
-1.0000000000000000e+01 1.0000000000000000e+01
-1.0000000000000000e+01 1.0000000000000000e+01
-1.0000000000000000e+01 1.0000000000000000e+01
ITEM: ENTRIES index c_angles
1 106.626 
2 98.7209 
3 116.152 
4 79.4399 
5 9.36243 
6 151.799 
7 85.9628 
8 166.161 
9 147.889 
10 27.4447 
ITEM: TIMESTEP
7500
ITEM: NUMBER OF ENTRIES
10
ITEM: BOX BOUNDS pp pp pp
-1.0000000000000000e+01 1.0000000000000000e+01
-1.0000000000000000e+01 1.0000000000000000e+01
-1.0000000000000000e+01 1.0000000000000000e+01
ITEM: ENTRIES index c_angles
1 101.205 
2 106.07 
3 115.233 
4 79.704 
5 10.7899 
6 154.595 
7 92.113 
8 167.813 
9 161.356 
10 30.4729 
ITEM: TIMESTEP
7600
ITEM: NUMBER OF ENTRIES
10
ITEM: BOX BOUNDS pp pp pp
-1.0000000000000000e+01 1.0000000000000000e+01
-1.0000000000000000e+01 1.0000000000000000e+01
-1.0000000000000000e+01 1.0000000000000000e+01
ITEM: ENTRIES index c_angles
1 100.9 
2 114.779 
3 116.35 
4 86.0775 
5 16.131 
6 149.228 
7 102.448 
8 170.484 
9 167.962 
10 39.5544 
ITEM: TIMESTEP
7700
ITEM: NUMBER OF ENTRIES
10
ITEM: BOX BOUNDS pp pp pp
-1.0000000000000000e+01 1.0000000000000000e+01
-1.0000000000000000e+01 1.0000000000000000e+01
-1.0000000000000000e+01 1.0000000000000000e+01
ITEM: ENTRIES index c_angles
1 99.33 
2 119.362 
3 118.953 
4 96.7605 
5 25.9283 
6 137.417 
7 111.178 
8 170.771 
9 176.175 
10 49.4751 
ITEM: TIMESTEP
7800
ITEM: NUMBER OF ENTRIES
10
ITEM: BOX BOUNDS pp pp pp
-1.0000000000000000e+01 1.0000000000000000e+01
-1.0000000000000000e+01 1.0000000000000000e+01
-1.0000000000000000e+01 1.0000000000000000e+01
ITEM: ENTRIES index c_angles
1 101.474 
2 111.293 
3 117.364 
4 107.607 
5 34.5365 
6 116.232 
7 113.157 
8 166.156 
9 165.786 
10 55.2751 
ITEM: TIMESTEP
7900
ITEM: NUMBER OF ENTRIES
10
ITEM: BOX BOUNDS pp pp pp
-1.0000000000000000e+01 1.0000000000000000e+01
-1.0000000000000000e+01 1.0000000000000000e+01
-1.0000000000000000e+01 1.0000000000000000e+01
ITEM: ENTRIES index c_angles
1 108.825 
2 100.515 
3 113.13 
4 116.672 
5 37.0152 
6 97.0751 
7 112.08 
8 162.273 
9 154.185 
10 58.6892 
ITEM: TIMESTEP
8000
ITEM: NUMBER OF ENTRIES
10
ITEM: BOX BOUNDS pp pp pp
-1.0000000000000000e+01 1.0000000000000000e+01
-1.0000000000000000e+01 1.0000000000000000e+01
-1.0000000000000000e+01 1.0000000000000000e+01
ITEM: ENTRIES index c_angles
1 118.754 
2 85.4633 
3 106.225 
4 125.41 
5 37.1964 
6 86.4259 
7 111.675 
8 162.151 
9 150.362 
10 62.8098 
ITEM: TIMESTEP
8100
ITEM: NUMBER OF ENTRIES
10
ITEM: BOX BOUNDS pp pp pp
-1.0000000000000000e+01 1.0000000000000000e+01
-1.0000000000000000e+01 1.0000000000000000e+01
-1.0000000000000000e+01 1.0000000000000000e+01
ITEM: ENTRIES index c_angles
1 131.78 
2 75.3052 
3 99.0156 
4 134.381 
5 34.9145 
6 78.1429 
7 113.701 
8 159.65 
9 149.342 
10 64.766 
ITEM: TIMESTEP
8200
ITEM: NUMBER OF ENTRIES
10
ITEM: BOX BOUNDS pp pp pp
-1.0000000000000000e+01 1.0000000000000000e+01
-1.0000000000000000e+01 1.0000000000000000e+01
-1.0000000000000000e+01 1.0000000000000000e+01
ITEM: ENTRIES index c_angles
1 144.234 
2 94.1328 
3 68.9753 
4 133.991 
5 34.8308 
6 77.1257 
7 145.168 
8 157.467 
9 115.667 
10 65.7906 
ITEM: TIMESTEP
8300
ITEM: NUMBER OF ENTRIES
10
ITEM: BOX BOUNDS pp pp pp
-1.0000000000000000e+01 1.0000000000000000e+01
-1.0000000000000000e+01 1.0000000000000000e+01
-1.0000000000000000e+01 1.0000000000000000e+01
ITEM: ENTRIES index c_angles
1 147.674 
2 90.2206 
3 67.3894 
4 120.221 
5 33.1674 
6 75.9897 
7 134.74 
8 157.851 
9 109.803 
10 65.6616 
ITEM: TIMESTEP
8400
ITEM: NUMBER OF ENTRIES
10
ITEM: BOX BOUNDS pp pp pp
-1.0000000000000000e+01 1.0000000000000000e+01
-1.0000000000000000e+01 1.0000000000000000e+01
-1.0000000000000000e+01 1.0000000000000000e+01
ITEM: ENTRIES index c_angles
1 138.668 
2 83.1969 
3 71.764 
4 104.177 
5 28.8078 
6 85.8256 
7 117.88 
8 154.376 
9 100.941 
10 66.7848 
ITEM: TIMESTEP
8500
ITEM: NUMBER OF ENTRIES
10
ITEM: BOX BOUNDS pp pp pp
-1.0000000000000000e+01 1.0000000000000000e+01
-1.0000000000000000e+01 1.0000000000000000e+01
-1.0000000000000000e+01 1.0000000000000000e+01
ITEM: ENTRIES index c_angles
1 123.546 
2 74.4426 
3 86.0799 
4 90.3346 
5 26.0906 
6 96.035 
7 105.817 
8 144.836 
9 89.4163 
10 66.0771 
ITEM: TIMESTEP
8600
ITEM: NUMBER OF ENTRIES
10
ITEM: BOX BOUNDS pp pp pp
-1.0000000000000000e+01 1.0000000000000000e+01
-1.0000000000000000e+01 1.0000000000000000e+01
-1.0000000000000000e+01 1.0000000000000000e+01
ITEM: ENTRIES index c_angles
1 109.908 
2 68.9099 
3 105.561 
4 80.8321 
5 28.6008 
6 95.1217 
7 96.7292 
8 130.531 
9 79.7627 
10 64.8491 
ITEM: TIMESTEP
8700
ITEM: NUMBER OF ENTRIES
10
ITEM: BOX BOUNDS pp pp pp
-1.0000000000000000e+01 1.0000000000000000e+01
-1.0000000000000000e+01 1.0000000000000000e+01
-1.0000000000000000e+01 1.0000000000000000e+01
ITEM: ENTRIES index c_angles
1 98.9846 
2 68.9661 
3 123.742 
4 72.9222 
5 39.4244 
6 94.9048 
7 91.6063 
8 114.325 
9 76.731 
10 63.7888 
ITEM: TIMESTEP
8800
ITEM: NUMBER OF ENTRIES
10
ITEM: BOX BOUNDS pp pp pp
-1.0000000000000000e+01 1.0000000000000000e+01
-1.0000000000000000e+01 1.0000000000000000e+01
-1.0000000000000000e+01 1.0000000000000000e+01
ITEM: ENTRIES index c_angles
1 88.7184 
2 74.8856 
3 138.923 
4 73.3433 
5 48.2598 
6 91.8556 
7 91.451 
8 101.122 
9 75.5852 
10 60.6427 
ITEM: TIMESTEP
8900
ITEM: NUMBER OF ENTRIES
10
ITEM: BOX BOUNDS pp pp pp
-1.0000000000000000e+01 1.0000000000000000e+01
-1.0000000000000000e+01 1.0000000000000000e+01
-1.0000000000000000e+01 1.0000000000000000e+01
ITEM: ENTRIES index c_angles
1 83.3677 
2 82.394 
3 139.841 
4 78.5777 
5 54.3962 
6 86.3614 
7 93.4282 
8 92.0245 
9 80.3418 
10 59.7028 
ITEM: TIMESTEP
9000
ITEM: NUMBER OF ENTRIES
10
ITEM: BOX BOUNDS pp pp pp
-1.0000000000000000e+01 1.0000000000000000e+01
-1.0000000000000000e+01 1.0000000000000000e+01
-1.0000000000000000e+01 1.0000000000000000e+01
ITEM: ENTRIES index c_angles
1 81.608 
2 89.4865 
3 125.662 
4 83.183 
5 53.6774 
6 79.4237 
7 102.385 
8 81.9111 
9 89.692 
10 55.7428 
ITEM: TIMESTEP
9100
ITEM: NUMBER OF ENTRIES
10
ITEM: BOX BOUNDS pp pp pp
-1.0000000000000000e+01 1.0000000000000000e+01
-1.0000000000000000e+01 1.0000000000000000e+01
-1.0000000000000000e+01 1.0000000000000000e+01
ITEM: ENTRIES index c_angles
1 78.4465 
2 95.5171 
3 107.218 
4 91.6319 
5 55.1255 
6 67.3168 
7 115.805 
8 75.6331 
9 109.558 
10 51.6672 
ITEM: TIMESTEP
9200
ITEM: NUMBER OF ENTRIES
10
ITEM: BOX BOUNDS pp pp pp
-1.0000000000000000e+01 1.0000000000000000e+01
-1.0000000000000000e+01 1.0000000000000000e+01
-1.0000000000000000e+01 1.0000000000000000e+01
ITEM: ENTRIES index c_angles
1 72.9458 
2 92.5347 
3 101.705 
4 95.4093 
5 55.8937 
6 54.8446 
7 68.6677 
8 135.261 
9 126.828 
10 49.8014 
ITEM: TIMESTEP
9300
ITEM: NUMBER OF ENTRIES
10
ITEM: BOX BOUNDS pp pp pp
-1.0000000000000000e+01 1.0000000000000000e+01
-1.0000000000000000e+01 1.0000000000000000e+01
-1.0000000000000000e+01 1.0000000000000000e+01
ITEM: ENTRIES index c_angles
1 68.1711 
2 80.3137 
3 106.616 
4 87.7132 
5 53.8826 
6 56.0995 
7 62.8134 
8 143.01 
9 131.378 
10 48.551 
ITEM: TIMESTEP
9400
ITEM: NUMBER OF ENTRIES
10
ITEM: BOX BOUNDS pp pp pp
-1.0000000000000000e+01 1.0000000000000000e+01
-1.0000000000000000e+01 1.0000000000000000e+01
-1.0000000000000000e+01 1.0000000000000000e+01
ITEM: ENTRIES index c_angles
1 58.8835 
2 66.2147 
3 110.977 
4 72.8051 
5 60.0356 
6 59.5543 
7 56.6341 
8 119.745 
9 127.867 
10 52.3808 
ITEM: TIMESTEP
9500
ITEM: NUMBER OF ENTRIES
10
ITEM: BOX BOUNDS pp pp pp
-1.0000000000000000e+01 1.0000000000000000e+01
-1.0000000000000000e+01 1.0000000000000000e+01
-1.0000000000000000e+01 1.0000000000000000e+01
ITEM: ENTRIES index c_angles
1 51.264 
2 55.0418 
3 118.27 
4 58.1389 
5 65.8416 
6 63.6977 
7 53.7534 
8 97.9768 
9 119.015 
10 60.6951 
ITEM: TIMESTEP
9600
ITEM: NUMBER OF ENTRIES
10
ITEM: BOX BOUNDS pp pp pp
-1.0000000000000000e+01 1.0000000000000000e+01
-1.0000000000000000e+01 1.0000000000000000e+01
-1.0000000000000000e+01 1.0000000000000000e+01
ITEM: ENTRIES index c_angles
1 49.4821 
2 45.4605 
3 134.096 
4 49.5104 
5 68.5583 
6 68.6939 
7 53.3009 
8 83.7948 
9 111.257 
10 68.6329 
ITEM: TIMESTEP
9700
ITEM: NUMBER OF ENTRIES
10
ITEM: BOX BOUNDS pp pp pp
-1.0000000000000000e+01 1.0000000000000000e+01
-1.0000000000000000e+01 1.0000000000000000e+01
-1.0000000000000000e+01 1.0000000000000000e+01
ITEM: ENTRIES index c_angles
1 54.3311 
2 37.1323 
3 142.891 
4 45.3371 
5 63.4293 
6 67.0263 
7 55.2545 
8 73.2601 
9 106.816 
10 72.153 
ITEM: TIMESTEP
9800
ITEM: NUMBER OF ENTRIES
10
ITEM: BOX BOUNDS pp pp pp
-1.0000000000000000e+01 1.0000000000000000e+01
-1.0000000000000000e+01 1.0000000000000000e+01
-1.0000000000000000e+01 1.0000000000000000e+01
ITEM: ENTRIES index c_angles
1 66.7022 
2 32.0882 
3 142.943 
4 46.8454 
5 56.5221 
6 69.9998 
7 53.8805 
8 65.5818 
9 110.419 
10 66.5606 
ITEM: TIMESTEP
9900
ITEM: NUMBER OF ENTRIES
10
ITEM: BOX BOUNDS pp pp pp
-1.0000000000000000e+01 1.0000000000000000e+01
-1.0000000000000000e+01 1.0000000000000000e+01
-1.0000000000000000e+01 1.0000000000000000e+01
ITEM: ENTRIES index c_angles
1 85.6937 
2 29.3119 
3 130.461 
4 49.2936 
5 48.5936 
6 69.5196 
7 52.3052 
8 61.7137 
9 122.89 
10 53.9007 
ITEM: TIMESTEP
10000
ITEM: NUMBER OF ENTRIES
10
ITEM: BOX BOUNDS pp pp pp
-1.0000000000000000e+01 1.0000000000000000e+01
-1.0000000000000000e+01 1.0000000000000000e+01
-1.0000000000000000e+01 1.0000000000000000e+01
ITEM: ENTRIES index c_angles
1 98.4426 
2 27.8334 
3 117.546 
4 55.7021 
5 42.996 
6 60.4661 
7 52.9284 
8 60.2053 
9 135.847 
10 46.2984 
ITEM: TIMESTEP
10100
ITEM: NUMBER OF ENTRIES
10
ITEM: BOX BOUNDS pp pp pp
-1.0000000000000000e+01 1.0000000000000000e+01
-1.0000000000000000e+01 1.0000000000000000e+01
-1.0000000000000000e+01 1.0000000000000000e+01
ITEM: ENTRIES index c_angles
1 105.599 
2 31.8476 
3 115.741 
4 65.3338 
5 39.703 
6 53.6972 
7 50.5352 
8 63.6582 
9 138.7 
10 42.4823 
ITEM: TIMESTEP
10200
ITEM: NUMBER OF ENTRIES
10
ITEM: BOX BOUNDS pp pp pp
-1.0000000000000000e+01 1.0000000000000000e+01
-1.0000000000000000e+01 1.0000000000000000e+01
-1.0000000000000000e+01 1.0000000000000000e+01
ITEM: ENTRIES index c_angles
1 110.083 
2 35.2497 
3 113.413 
4 76.8803 
5 38.2269 
6 45.773 
7 51.6962 
8 124.051 
9 47.6195 
10 69.5924 
ITEM: TIMESTEP
10300
ITEM: NUMBER OF ENTRIES
10
ITEM: BOX BOUNDS pp pp pp
-1.0000000000000000e+01 1.0000000000000000e+01
-1.0000000000000000e+01 1.0000000000000000e+01
-1.0000000000000000e+01 1.0000000000000000e+01
ITEM: ENTRIES index c_angles
1 111.217 
2 39.2287 
3 115.356 
4 96.9287 
5 34.2643 
6 39.9714 
7 56.2558 
8 108.026 
9 61.848 
10 62.4763 
ITEM: TIMESTEP
10400
ITEM: NUMBER OF ENTRIES
10
ITEM: BOX BOUNDS pp pp pp
-1.0000000000000000e+01 1.0000000000000000e+01
-1.0000000000000000e+01 1.0000000000000000e+01
-1.0000000000000000e+01 1.0000000000000000e+01
ITEM: ENTRIES index c_angles
1 111.066 
2 42.3833 
3 119.637 
4 127.788 
5 35.3854 
6 36.3855 
7 64.9226 
8 90.9195 
9 82.74 
10 46.2752 
ITEM: TIMESTEP
10500
ITEM: NUMBER OF ENTRIES
10
ITEM: BOX BOUNDS pp pp pp
-1.0000000000000000e+01 1.0000000000000000e+01
-1.0000000000000000e+01 1.0000000000000000e+01
-1.0000000000000000e+01 1.0000000000000000e+01
ITEM: ENTRIES index c_angles
1 110.747 
2 46.4486 
3 127.253 
4 158.071 
5 47.579 
6 34.2641 
7 74.0382 
8 71.588 
9 100.726 
10 35.5604 
ITEM: TIMESTEP
10600
ITEM: NUMBER OF ENTRIES
10
ITEM: BOX BOUNDS pp pp pp
-1.0000000000000000e+01 1.0000000000000000e+01
-1.0000000000000000e+01 1.0000000000000000e+01
-1.0000000000000000e+01 1.0000000000000000e+01
ITEM: ENTRIES index c_angles
1 109.214 
2 49.9727 
3 142.928 
4 154.048 
5 59.5782 
6 37.3124 
7 82.5289 
8 57.4502 
9 108.449 
10 30.2605 
ITEM: TIMESTEP
10700
ITEM: NUMBER OF ENTRIES
10
ITEM: BOX BOUNDS pp pp pp
-1.0000000000000000e+01 1.0000000000000000e+01
-1.0000000000000000e+01 1.0000000000000000e+01
-1.0000000000000000e+01 1.0000000000000000e+01
ITEM: ENTRIES index c_angles
1 107.341 
2 60.3829 
3 152.566 
4 136.432 
5 60.1248 
6 42.8193 
7 94.4662 
8 53.9718 
9 117.678 
10 28.6579 
ITEM: TIMESTEP
10800
ITEM: NUMBER OF ENTRIES
10
ITEM: BOX BOUNDS pp pp pp
-1.0000000000000000e+01 1.0000000000000000e+01
-1.0000000000000000e+01 1.0000000000000000e+01
-1.0000000000000000e+01 1.0000000000000000e+01
ITEM: ENTRIES index c_angles
1 104.633 
2 73.1918 
3 151.801 
4 113.819 
5 61.2152 
6 53.333 
7 102.6 
8 54.1329 
9 125.613 
10 25.2564 
ITEM: TIMESTEP
10900
ITEM: NUMBER OF ENTRIES
10
ITEM: BOX BOUNDS pp pp pp
-1.0000000000000000e+01 1.0000000000000000e+01
-1.0000000000000000e+01 1.0000000000000000e+01
-1.0000000000000000e+01 1.0000000000000000e+01
ITEM: ENTRIES index c_angles
1 99.9798 
2 83.5754 
3 145.727 
4 98.2509 
5 66.5891 
6 62.1483 
7 101.135 
8 58.7155 
9 135.561 
10 16.8373 
ITEM: TIMESTEP
11000
ITEM: NUMBER OF ENTRIES
10
ITEM: BOX BOUNDS pp pp pp
-1.0000000000000000e+01 1.0000000000000000e+01
-1.0000000000000000e+01 1.0000000000000000e+01
-1.0000000000000000e+01 1.0000000000000000e+01
ITEM: ENTRIES index c_angles
1 98.6514 
2 93.9178 
3 132.874 
4 92.6603 
5 72.0261 
6 56.0497 
7 92.3354 
8 66.2786 
9 144.726 
10 24.1065 
ITEM: TIMESTEP
11100
ITEM: NUMBER OF ENTRIES
10
ITEM: BOX BOUNDS pp pp pp
-1.0000000000000000e+01 1.0000000000000000e+01
-1.0000000000000000e+01 1.0000000000000000e+01
-1.0000000000000000e+01 1.0000000000000000e+01
ITEM: ENTRIES index c_angles
1 97.5732 
2 104.542 
3 119.646 
4 91.812 
5 84.8632 
6 50.5982 
7 86.1045 
8 79.1235 
9 147.73 
10 41.5375 
ITEM: TIMESTEP
11200
ITEM: NUMBER OF ENTRIES
10
ITEM: BOX BOUNDS pp pp pp
-1.0000000000000000e+01 1.0000000000000000e+01
-1.0000000000000000e+01 1.0000000000000000e+01
-1.0000000000000000e+01 1.0000000000000000e+01
ITEM: ENTRIES index c_angles
1 93.6682 
2 118.714 
3 107.813 
4 48.0351 
5 97.449 
6 105.009 
7 81.4436 
8 89.0714 
9 138.988 
10 54.7862 
ITEM: TIMESTEP
11300
ITEM: NUMBER OF ENTRIES
10
ITEM: BOX BOUNDS pp pp pp
-1.0000000000000000e+01 1.0000000000000000e+01
-1.0000000000000000e+01 1.0000000000000000e+01
-1.0000000000000000e+01 1.0000000000000000e+01
ITEM: ENTRIES index c_angles
1 79.0562 
2 127.145 
3 101.548 
4 44.6663 
5 110.035 
6 128.568 
7 80.8961 
8 93.5795 
9 132.531 
10 60.8304 
ITEM: TIMESTEP
11400
ITEM: NUMBER OF ENTRIES
10
ITEM: BOX BOUNDS pp pp pp
-1.0000000000000000e+01 1.0000000000000000e+01
-1.0000000000000000e+01 1.0000000000000000e+01
-1.0000000000000000e+01 1.0000000000000000e+01
ITEM: ENTRIES index c_angles
1 63.9151 
2 131.327 
3 95.8202 
4 44.0615 
5 130.946 
6 143.012 
7 80.1142 
8 89.8481 
9 129.992 
10 59.6057 
ITEM: TIMESTEP
11500
ITEM: NUMBER OF ENTRIES
10
ITEM: BOX BOUNDS pp pp pp
-1.0000000000000000e+01 1.0000000000000000e+01
-1.0000000000000000e+01 1.0000000000000000e+01
-1.0000000000000000e+01 1.0000000000000000e+01
ITEM: ENTRIES index c_angles
1 54.6362 
2 130.944 
3 88.0088 
4 49.9974 
5 163.353 
6 147.534 
7 84.8853 
8 77.9457 
9 122.335 
10 59.6967 
ITEM: TIMESTEP
11600
ITEM: NUMBER OF ENTRIES
10
ITEM: BOX BOUNDS pp pp pp
-1.0000000000000000e+01 1.0000000000000000e+01
-1.0000000000000000e+01 1.0000000000000000e+01
-1.0000000000000000e+01 1.0000000000000000e+01
ITEM: ENTRIES index c_angles
1 48.5489 
2 123.915 
3 82.747 
4 59.924 
5 161.861 
6 137.817 
7 87.8162 
8 64.7832 
9 113.198 
10 61.1878 
ITEM: TIMESTEP
11700
ITEM: NUMBER OF ENTRIES
10
ITEM: BOX BOUNDS pp pp pp
-1.0000000000000000e+01 1.0000000000000000e+01
-1.0000000000000000e+01 1.0000000000000000e+01
-1.0000000000000000e+01 1.0000000000000000e+01
ITEM: ENTRIES index c_angles
1 43.6642 
2 116.019 
3 75.433 
4 72.6849 
5 128.066 
6 128.027 
7 94.35 
8 59.1105 
9 103.922 
10 66.905 
ITEM: TIMESTEP
11800
ITEM: NUMBER OF ENTRIES
10
ITEM: BOX BOUNDS pp pp pp
-1.0000000000000000e+01 1.0000000000000000e+01
-1.0000000000000000e+01 1.0000000000000000e+01
-1.0000000000000000e+01 1.0000000000000000e+01
ITEM: ENTRIES index c_angles
1 40.4601 
2 109.291 
3 69.0703 
4 90.7104 
5 97.6842 
6 121.439 
7 107.743 
8 60.2604 
9 94.5628 
10 73.5544 
ITEM: TIMESTEP
11900
ITEM: NUMBER OF ENTRIES
10
ITEM: BOX BOUNDS pp pp pp
-1.0000000000000000e+01 1.0000000000000000e+01
-1.0000000000000000e+01 1.0000000000000000e+01
-1.0000000000000000e+01 1.0000000000000000e+01
ITEM: ENTRIES index c_angles
1 41.1513 
2 106.995 
3 67.2536 
4 112.324 
5 77.1129 
6 119.328 
7 123.88 
8 65.1576 
9 84.3907 
10 85.7023 
ITEM: TIMESTEP
12000
ITEM: NUMBER OF ENTRIES
10
ITEM: BOX BOUNDS pp pp pp
-1.0000000000000000e+01 1.0000000000000000e+01
-1.0000000000000000e+01 1.0000000000000000e+01
-1.0000000000000000e+01 1.0000000000000000e+01
ITEM: ENTRIES index c_angles
1 48.0155 
2 106.306 
3 68.3504 
4 122.895 
5 65.4972 
6 121.718 
7 132.603 
8 74.9674 
9 80.1678 
10 100.35 
ITEM: TIMESTEP
12100
ITEM: NUMBER OF ENTRIES
10
ITEM: BOX BOUNDS pp pp pp
-1.0000000000000000e+01 1.0000000000000000e+01
-1.0000000000000000e+01 1.0000000000000000e+01
-1.0000000000000000e+01 1.0000000000000000e+01
ITEM: ENTRIES index c_angles
1 62.3701 
2 102.549 
3 72.9321 
4 56.3687 
5 135.164 
6 126.785 
7 142.011 
8 74.098 
9 88.0228 
10 121.921 
ITEM: TIMESTEP
12200
ITEM: NUMBER OF ENTRIES
10
ITEM: BOX BOUNDS pp pp pp
-1.0000000000000000e+01 1.0000000000000000e+01
-1.0000000000000000e+01 1.0000000000000000e+01
-1.0000000000000000e+01 1.0000000000000000e+01
ITEM: ENTRIES index c_angles
1 84.227 
2 97.6221 
3 78.1958 
4 45.9526 
5 145.022 
6 124.793 
7 146.516 
8 67.6258 
9 99.9805 
10 137.889 
ITEM: TIMESTEP
12300
ITEM: NUMBER OF ENTRIES
10
ITEM: BOX BOUNDS pp pp pp
-1.0000000000000000e+01 1.0000000000000000e+01
-1.0000000000000000e+01 1.0000000000000000e+01
-1.0000000000000000e+01 1.0000000000000000e+01
ITEM: ENTRIES index c_angles
1 110.824 
2 72.7735 
3 83.9053 
4 36.3584 
5 147.91 
6 118.163 
7 148.547 
8 63.3114 
9 107.862 
10 139.189 
ITEM: TIMESTEP
12400
ITEM: NUMBER OF ENTRIES
10
ITEM: BOX BOUNDS pp pp pp
-1.0000000000000000e+01 1.0000000000000000e+01
-1.0000000000000000e+01 1.0000000000000000e+01
-1.0000000000000000e+01 1.0000000000000000e+01
ITEM: ENTRIES index c_angles
1 134.635 
2 46.4795 
3 90.4481 
4 22.9365 
5 143.667 
6 105.351 
7 149.162 
8 69.2177 
9 104.241 
10 128.66 
ITEM: TIMESTEP
12500
ITEM: NUMBER OF ENTRIES
10
ITEM: BOX BOUNDS pp pp pp
-1.0000000000000000e+01 1.0000000000000000e+01
-1.0000000000000000e+01 1.0000000000000000e+01
-1.0000000000000000e+01 1.0000000000000000e+01
ITEM: ENTRIES index c_angles
1 132.444 
2 31.836 
3 94.5189 
4 20.2521 
5 135.033 
6 87.4907 
7 153.297 
8 72.3981 
9 94.1136 
10 107.93 
ITEM: TIMESTEP
12600
ITEM: NUMBER OF ENTRIES
10
ITEM: BOX BOUNDS pp pp pp
-1.0000000000000000e+01 1.0000000000000000e+01
-1.0000000000000000e+01 1.0000000000000000e+01
-1.0000000000000000e+01 1.0000000000000000e+01
ITEM: ENTRIES index c_angles
1 121.206 
2 22.4367 
3 94.3974 
4 26.291 
5 135.618 
6 75.2904 
7 151.213 
8 69.9816 
9 82.4373 
10 93.389 
ITEM: TIMESTEP
12700
ITEM: NUMBER OF ENTRIES
10
ITEM: BOX BOUNDS pp pp pp
-1.0000000000000000e+01 1.0000000000000000e+01
-1.0000000000000000e+01 1.0000000000000000e+01
-1.0000000000000000e+01 1.0000000000000000e+01
ITEM: ENTRIES index c_angles
1 113.404 
2 16.5826 
3 90.6027 
4 31.6005 
5 137.217 
6 67.753 
7 147.025 
8 60.1672 
9 73.3293 
10 87.1155 
ITEM: TIMESTEP
12800
ITEM: NUMBER OF ENTRIES
10
ITEM: BOX BOUNDS pp pp pp
-1.0000000000000000e+01 1.0000000000000000e+01
-1.0000000000000000e+01 1.0000000000000000e+01
-1.0000000000000000e+01 1.0000000000000000e+01
ITEM: ENTRIES index c_angles
1 108.292 
2 11.0208 
3 85.7962 
4 39.0607 
5 138.117 
6 61.1672 
7 140.426 
8 54.4989 
9 67.1227 
10 81.297 
ITEM: TIMESTEP
12900
ITEM: NUMBER OF ENTRIES
10
ITEM: BOX BOUNDS pp pp pp
-1.0000000000000000e+01 1.0000000000000000e+01
-1.0000000000000000e+01 1.0000000000000000e+01
-1.0000000000000000e+01 1.0000000000000000e+01
ITEM: ENTRIES index c_angles
1 104.09 
2 11.041 
3 85.4314 
4 46.7839 
5 137.574 
6 56.1651 
7 131.78 
8 52.8563 
9 65.4979 
10 74.0893 
ITEM: TIMESTEP
13000
ITEM: NUMBER OF ENTRIES
10
ITEM: BOX BOUNDS pp pp pp
-1.0000000000000000e+01 1.0000000000000000e+01
-1.0000000000000000e+01 1.0000000000000000e+01
-1.0000000000000000e+01 1.0000000000000000e+01
ITEM: ENTRIES index c_angles
1 98.1536 
2 16.1955 
3 88.3158 
4 58.1654 
5 127.604 
6 50.6241 
7 131.454 
8 49.8947 
9 67.1556 
10 70.6454 
ITEM: TIMESTEP
13100
ITEM: NUMBER OF ENTRIES
10
ITEM: BOX BOUNDS pp pp pp
-1.0000000000000000e+01 1.0000000000000000e+01
-1.0000000000000000e+01 1.0000000000000000e+01
-1.0000000000000000e+01 1.0000000000000000e+01
ITEM: ENTRIES index c_angles
1 89.7699 
2 26.9445 
3 96.9545 
4 69.718 
5 115.051 
6 46.6383 
7 131.521 
8 44.7587 
9 68.5774 
10 65.1011 
ITEM: TIMESTEP
13200
ITEM: NUMBER OF ENTRIES
10
ITEM: BOX BOUNDS pp pp pp
-1.0000000000000000e+01 1.0000000000000000e+01
-1.0000000000000000e+01 1.0000000000000000e+01
-1.0000000000000000e+01 1.0000000000000000e+01
ITEM: ENTRIES index c_angles
1 86.4521 
2 37.3371 
3 111.189 
4 81.3218 
5 106.231 
6 135.66 
7 44.0246 
8 62.8113 
9 36.7507 
10 58.8077 
ITEM: TIMESTEP
13300
ITEM: NUMBER OF ENTRIES
10
ITEM: BOX BOUNDS pp pp pp
-1.0000000000000000e+01 1.0000000000000000e+01
-1.0000000000000000e+01 1.0000000000000000e+01
-1.0000000000000000e+01 1.0000000000000000e+01
ITEM: ENTRIES index c_angles
1 83.5655 
2 41.3839 
3 129.965 
4 89.9397 
5 102.973 
6 138.876 
7 45.9424 
8 59.2075 
9 27.5262 
10 52.7078 
ITEM: TIMESTEP
13400
ITEM: NUMBER OF ENTRIES
10
ITEM: BOX BOUNDS pp pp pp
-1.0000000000000000e+01 1.0000000000000000e+01
-1.0000000000000000e+01 1.0000000000000000e+01
-1.0000000000000000e+01 1.0000000000000000e+01
ITEM: ENTRIES index c_angles
1 87.5784 
2 41.147 
3 144.335 
4 98.9893 
5 99.7187 
6 134.676 
7 54.2963 
8 53.0396 
9 20.8244 
10 42.9475 
ITEM: TIMESTEP
13500
ITEM: NUMBER OF ENTRIES
10
ITEM: BOX BOUNDS pp pp pp
-1.0000000000000000e+01 1.0000000000000000e+01
-1.0000000000000000e+01 1.0000000000000000e+01
-1.0000000000000000e+01 1.0000000000000000e+01
ITEM: ENTRIES index c_angles
1 95.732 
2 36.908 
3 152.219 
4 111.911 
5 101.46 
6 136.387 
7 68.8847 
8 47.3872 
9 19.1571 
10 36.3063 
ITEM: TIMESTEP
13600
ITEM: NUMBER OF ENTRIES
10
ITEM: BOX BOUNDS pp pp pp
-1.0000000000000000e+01 1.0000000000000000e+01
-1.0000000000000000e+01 1.0000000000000000e+01
-1.0000000000000000e+01 1.0000000000000000e+01
ITEM: ENTRIES index c_angles
1 90.9707 
2 37.581 
3 149.67 
4 127.017 
5 108.203 
6 140.969 
7 87.2052 
8 45.648 
9 23.6667 
10 30.5109 
ITEM: TIMESTEP
13700
ITEM: NUMBER OF ENTRIES
10
ITEM: BOX BOUNDS pp pp pp
-1.0000000000000000e+01 1.0000000000000000e+01
-1.0000000000000000e+01 1.0000000000000000e+01
-1.0000000000000000e+01 1.0000000000000000e+01
ITEM: ENTRIES index c_angles
1 73.6138 
2 41.3177 
3 143.551 
4 142.214 
5 123.326 
6 141.151 
7 105.257 
8 47.6106 
9 32.0287 
10 21.2463 
ITEM: TIMESTEP
13800
ITEM: NUMBER OF ENTRIES
10
ITEM: BOX BOUNDS pp pp pp
-1.0000000000000000e+01 1.0000000000000000e+01
-1.0000000000000000e+01 1.0000000000000000e+01
-1.0000000000000000e+01 1.0000000000000000e+01
ITEM: ENTRIES index c_angles
1 64.4297 
2 50.0985 
3 134.089 
4 147.191 
5 148.931 
6 136.898 
7 126.926 
8 53.1134 
9 41.6501 
10 23.5574 
ITEM: TIMESTEP
13900
ITEM: NUMBER OF ENTRIES
10
ITEM: BOX BOUNDS pp pp pp
-1.0000000000000000e+01 1.0000000000000000e+01
-1.0000000000000000e+01 1.0000000000000000e+01
-1.0000000000000000e+01 1.0000000000000000e+01
ITEM: ENTRIES index c_angles
1 61.3665 
2 62.7075 
3 125.222 
4 149.646 
5 147.198 
6 135.552 
7 151.411 
8 60.3663 
9 47.6605 
10 34.4161 
ITEM: TIMESTEP
14000
ITEM: NUMBER OF ENTRIES
10
ITEM: BOX BOUNDS pp pp pp
-1.0000000000000000e+01 1.0000000000000000e+01
-1.0000000000000000e+01 1.0000000000000000e+01
-1.0000000000000000e+01 1.0000000000000000e+01
ITEM: ENTRIES index c_angles
1 68.8045 
2 51.926 
3 62.0673 
4 81.2448 
5 112.634 
6 147.542 
7 130.195 
8 131.999 
9 150.64 
10 48.6251 
ITEM: TIMESTEP
14100
ITEM: NUMBER OF ENTRIES
10
ITEM: BOX BOUNDS pp pp pp
-1.0000000000000000e+01 1.0000000000000000e+01
-1.0000000000000000e+01 1.0000000000000000e+01
-1.0000000000000000e+01 1.0000000000000000e+01
ITEM: ENTRIES index c_angles
1 76.1625 
2 55.5187 
3 69.6331 
4 103.994 
5 102.592 
6 145.285 
7 110.133 
8 117.537 
9 130.669 
10 61.8368 
ITEM: TIMESTEP
14200
ITEM: NUMBER OF ENTRIES
10
ITEM: BOX BOUNDS pp pp pp
-1.0000000000000000e+01 1.0000000000000000e+01
-1.0000000000000000e+01 1.0000000000000000e+01
-1.0000000000000000e+01 1.0000000000000000e+01
ITEM: ENTRIES index c_angles
1 77.9928 
2 59.0317 
3 80.6932 
4 121.272 
5 95.2258 
6 135.013 
7 89.6106 
8 106.434 
9 114.821 
10 77.0876 
ITEM: TIMESTEP
14300
ITEM: NUMBER OF ENTRIES
10
ITEM: BOX BOUNDS pp pp pp
-1.0000000000000000e+01 1.0000000000000000e+01
-1.0000000000000000e+01 1.0000000000000000e+01
-1.0000000000000000e+01 1.0000000000000000e+01
ITEM: ENTRIES index c_angles
1 77.8358 
2 61.9087 
3 89.4117 
4 121.987 
5 87.0786 
6 122.434 
7 73.5091 
8 97.5342 
9 101.624 
10 93.1155 
ITEM: TIMESTEP
14400
ITEM: NUMBER OF ENTRIES
10
ITEM: BOX BOUNDS pp pp pp
-1.0000000000000000e+01 1.0000000000000000e+01
-1.0000000000000000e+01 1.0000000000000000e+01
-1.0000000000000000e+01 1.0000000000000000e+01
ITEM: ENTRIES index c_angles
1 74.8137 
2 61.8231 
3 99.5192 
4 109.208 
5 82.9779 
6 111.248 
7 63.0494 
8 92.1964 
9 93.0655 
10 108.757 
ITEM: TIMESTEP
14500
ITEM: NUMBER OF ENTRIES
10
ITEM: BOX BOUNDS pp pp pp
-1.0000000000000000e+01 1.0000000000000000e+01
-1.0000000000000000e+01 1.0000000000000000e+01
-1.0000000000000000e+01 1.0000000000000000e+01
ITEM: ENTRIES index c_angles
1 75.9303 
2 65.6118 
3 111.804 
4 97.4903 
5 81.3925 
6 102.614 
7 57.6289 
8 90.8551 
9 92.6267 
10 118.778 
ITEM: TIMESTEP
14600
ITEM: NUMBER OF ENTRIES
10
ITEM: BOX BOUNDS pp pp pp
-1.0000000000000000e+01 1.0000000000000000e+01
-1.0000000000000000e+01 1.0000000000000000e+01
-1.0000000000000000e+01 1.0000000000000000e+01
ITEM: ENTRIES index c_angles
1 81.5352 
2 64.8458 
3 121.291 
4 91.5676 
5 77.0785 
6 95.3707 
7 54.6003 
8 90.5503 
9 99.9242 
10 125.497 
ITEM: TIMESTEP
14700
ITEM: NUMBER OF ENTRIES
10
ITEM: BOX BOUNDS pp pp pp
-1.0000000000000000e+01 1.0000000000000000e+01
-1.0000000000000000e+01 1.0000000000000000e+01
-1.0000000000000000e+01 1.0000000000000000e+01
ITEM: ENTRIES index c_angles
1 87.1991 
2 65.1026 
3 119.54 
4 90.7359 
5 73.5013 
6 94.2472 
7 51.8742 
8 96.2735 
9 110.733 
10 132.171 
ITEM: TIMESTEP
14800
ITEM: NUMBER OF ENTRIES
10
ITEM: BOX BOUNDS pp pp pp
-1.0000000000000000e+01 1.0000000000000000e+01
-1.0000000000000000e+01 1.0000000000000000e+01
-1.0000000000000000e+01 1.0000000000000000e+01
ITEM: ENTRIES index c_angles
1 93.9582 
2 62.9194 
3 117.245 
4 89.5094 
5 65.8439 
6 96.8518 
7 47.6845 
8 103.221 
9 118.639 
10 139.822 
ITEM: TIMESTEP
14900
ITEM: NUMBER OF ENTRIES
10
ITEM: BOX BOUNDS pp pp pp
-1.0000000000000000e+01 1.0000000000000000e+01
-1.0000000000000000e+01 1.0000000000000000e+01
-1.0000000000000000e+01 1.0000000000000000e+01
ITEM: ENTRIES index c_angles
1 100.062 
2 63.1567 
3 115.815 
4 94.5758 
5 57.076 
6 103.75 
7 44.3396 
8 110.581 
9 131.36 
10 154.372 
ITEM: TIMESTEP
15000
ITEM: NUMBER OF ENTRIES
10
ITEM: BOX BOUNDS pp pp pp
-1.0000000000000000e+01 1.0000000000000000e+01
-1.0000000000000000e+01 1.0000000000000000e+01
-1.0000000000000000e+01 1.0000000000000000e+01
ITEM: ENTRIES index c_angles
1 109.401 
2 65.518 
3 115.698 
4 102.178 
5 48.012 
6 111.22 
7 39.2034 
8 118.081 
9 147.135 
10 165.131 
ITEM: TIMESTEP
15100
ITEM: NUMBER OF ENTRIES
10
ITEM: BOX BOUNDS pp pp pp
-1.0000000000000000e+01 1.0000000000000000e+01
-1.0000000000000000e+01 1.0000000000000000e+01
-1.0000000000000000e+01 1.0000000000000000e+01
ITEM: ENTRIES index c_angles
1 115.449 
2 68.0797 
3 118.605 
4 107.963 
5 37.1702 
6 119.261 
7 35.0342 
8 119.624 
9 156.538 
10 157.633 
ITEM: TIMESTEP
15200
ITEM: NUMBER OF ENTRIES
10
ITEM: BOX BOUNDS pp pp pp
-1.0000000000000000e+01 1.0000000000000000e+01
-1.0000000000000000e+01 1.0000000000000000e+01
-1.0000000000000000e+01 1.0000000000000000e+01
ITEM: ENTRIES index c_angles
1 117.933 
2 72.3476 
3 127.831 
4 116.691 
5 31.7935 
6 119.583 
7 36.6462 
8 112.127 
9 149.004 
10 144.88 
ITEM: TIMESTEP
15300
ITEM: NUMBER OF ENTRIES
10
ITEM: BOX BOUNDS pp pp pp
-1.0000000000000000e+01 1.0000000000000000e+01
-1.0000000000000000e+01 1.0000000000000000e+01
-1.0000000000000000e+01 1.0000000000000000e+01
ITEM: ENTRIES index c_angles
1 122.493 
2 77.17 
3 135.874 
4 120.147 
5 22.1054 
6 117.238 
7 41.5594 
8 105.169 
9 122.506 
10 134.39 
ITEM: TIMESTEP
15400
ITEM: NUMBER OF ENTRIES
10
ITEM: BOX BOUNDS pp pp pp
-1.0000000000000000e+01 1.0000000000000000e+01
-1.0000000000000000e+01 1.0000000000000000e+01
-1.0000000000000000e+01 1.0000000000000000e+01
ITEM: ENTRIES index c_angles
1 121.395 
2 72.1155 
3 143.023 
4 110.481 
5 18.1399 
6 115.47 
7 42.9256 
8 99.0482 
9 93.0699 
10 123.147 
ITEM: TIMESTEP
15500
ITEM: NUMBER OF ENTRIES
10
ITEM: BOX BOUNDS pp pp pp
-1.0000000000000000e+01 1.0000000000000000e+01
-1.0000000000000000e+01 1.0000000000000000e+01
-1.0000000000000000e+01 1.0000000000000000e+01
ITEM: ENTRIES index c_angles
1 107.648 
2 57.0997 
3 155.226 
4 88.0331 
5 21.9776 
6 112.64 
7 43.816 
8 89.9244 
9 75.0891 
10 113.488 
ITEM: TIMESTEP
15600
ITEM: NUMBER OF ENTRIES
10
ITEM: BOX BOUNDS pp pp pp
-1.0000000000000000e+01 1.0000000000000000e+01
-1.0000000000000000e+01 1.0000000000000000e+01
-1.0000000000000000e+01 1.0000000000000000e+01
ITEM: ENTRIES index c_angles
1 93.1858 
2 48.3231 
3 170.926 
4 75.8549 
5 27.4736 
6 112.918 
7 49.8417 
8 83.4557 
9 67.0463 
10 104.59 
ITEM: TIMESTEP
15700
ITEM: NUMBER OF ENTRIES
10
ITEM: BOX BOUNDS pp pp pp
-1.0000000000000000e+01 1.0000000000000000e+01
-1.0000000000000000e+01 1.0000000000000000e+01
-1.0000000000000000e+01 1.0000000000000000e+01
ITEM: ENTRIES index c_angles
1 80.9226 
2 42.7774 
3 134.173 
4 67.4552 
5 32.438 
6 109.773 
7 64.704 
8 86.4409 
9 64.5871 
10 95.9183 
ITEM: TIMESTEP
15800
ITEM: NUMBER OF ENTRIES
10
ITEM: BOX BOUNDS pp pp pp
-1.0000000000000000e+01 1.0000000000000000e+01
-1.0000000000000000e+01 1.0000000000000000e+01
-1.0000000000000000e+01 1.0000000000000000e+01
ITEM: ENTRIES index c_angles
1 77.6399 
2 41.9157 
3 113.104 
4 63.8434 
5 32.7288 
6 99.5344 
7 86.8548 
8 97.1863 
9 63.1715 
10 87.5783 
ITEM: TIMESTEP
15900
ITEM: NUMBER OF ENTRIES
10
ITEM: BOX BOUNDS pp pp pp
-1.0000000000000000e+01 1.0000000000000000e+01
-1.0000000000000000e+01 1.0000000000000000e+01
-1.0000000000000000e+01 1.0000000000000000e+01
ITEM: ENTRIES index c_angles
1 81.9257 
2 45.5108 
3 102.643 
4 67.6638 
5 35.4673 
6 80.4854 
7 111.874 
8 104.305 
9 56.2704 
10 81.0232 
ITEM: TIMESTEP
16000
ITEM: NUMBER OF ENTRIES
10
ITEM: BOX BOUNDS pp pp pp
-1.0000000000000000e+01 1.0000000000000000e+01
-1.0000000000000000e+01 1.0000000000000000e+01
-1.0000000000000000e+01 1.0000000000000000e+01
ITEM: ENTRIES index c_angles
1 91.2838 
2 58.0974 
3 96.9687 
4 73.6307 
5 35.0543 
6 61.3216 
7 133.445 
8 106.922 
9 49.1223 
10 76.1066 
ITEM: TIMESTEP
16100
ITEM: NUMBER OF ENTRIES
10
ITEM: BOX BOUNDS pp pp pp
-1.0000000000000000e+01 1.0000000000000000e+01
-1.0000000000000000e+01 1.0000000000000000e+01
-1.0000000000000000e+01 1.0000000000000000e+01
ITEM: ENTRIES index c_angles
1 104.56 
2 32.1713 
3 70.1931 
4 95.1716 
5 81.4102 
6 45.4351 
7 155.132 
8 110.733 
9 49.9642 
10 71.2205 
ITEM: TIMESTEP
16200
ITEM: NUMBER OF ENTRIES
10
ITEM: BOX BOUNDS pp pp pp
-1.0000000000000000e+01 1.0000000000000000e+01
-1.0000000000000000e+01 1.0000000000000000e+01
-1.0000000000000000e+01 1.0000000000000000e+01
ITEM: ENTRIES index c_angles
1 117.109 
2 35.4441 
3 84.6532 
4 97.5807 
5 92.5351 
6 34.2251 
7 166.528 
8 122.051 
9 52.2504 
10 71.8075 
ITEM: TIMESTEP
16300
ITEM: NUMBER OF ENTRIES
10
ITEM: BOX BOUNDS pp pp pp
-1.0000000000000000e+01 1.0000000000000000e+01
-1.0000000000000000e+01 1.0000000000000000e+01
-1.0000000000000000e+01 1.0000000000000000e+01
ITEM: ENTRIES index c_angles
1 121.873 
2 42.5605 
3 93.2306 
4 100.808 
5 104.893 
6 28.3386 
7 153.172 
8 133.284 
9 59.3434 
10 70.7483 
ITEM: TIMESTEP
16400
ITEM: NUMBER OF ENTRIES
10
ITEM: BOX BOUNDS pp pp pp
-1.0000000000000000e+01 1.0000000000000000e+01
-1.0000000000000000e+01 1.0000000000000000e+01
-1.0000000000000000e+01 1.0000000000000000e+01
ITEM: ENTRIES index c_angles
1 111.628 
2 58.1138 
3 98.1892 
4 107.76 
5 112.528 
6 23.6653 
7 141.43 
8 132.791 
9 69.8474 
10 69.36 
ITEM: TIMESTEP
16500
ITEM: NUMBER OF ENTRIES
10
ITEM: BOX BOUNDS pp pp pp
-1.0000000000000000e+01 1.0000000000000000e+01
-1.0000000000000000e+01 1.0000000000000000e+01
-1.0000000000000000e+01 1.0000000000000000e+01
ITEM: ENTRIES index c_angles
1 97.9036 
2 77.7953 
3 106.391 
4 121.739 
5 114.83 
6 19.2759 
7 130.672 
8 122.533 
9 80.2944 
10 74.1868 
ITEM: TIMESTEP
16600
ITEM: NUMBER OF ENTRIES
10
ITEM: BOX BOUNDS pp pp pp
-1.0000000000000000e+01 1.0000000000000000e+01
-1.0000000000000000e+01 1.0000000000000000e+01
-1.0000000000000000e+01 1.0000000000000000e+01
ITEM: ENTRIES index c_angles
1 87.7267 
2 97.3662 
3 105.305 
4 142.641 
5 117.403 
6 18.6037 
7 116.225 
8 115.053 
9 93.8677 
10 84.5938 
ITEM: TIMESTEP
16700
ITEM: NUMBER OF ENTRIES
10
ITEM: BOX BOUNDS pp pp pp
-1.0000000000000000e+01 1.0000000000000000e+01
-1.0000000000000000e+01 1.0000000000000000e+01
-1.0000000000000000e+01 1.0000000000000000e+01
ITEM: ENTRIES index c_angles
1 80.0557 
2 114.994 
3 102.715 
4 171.3 
5 127.764 
6 37.0466 
7 101.43 
8 113.43 
9 109.706 
10 95.1641 
ITEM: TIMESTEP
16800
ITEM: NUMBER OF ENTRIES
10
ITEM: BOX BOUNDS pp pp pp
-1.0000000000000000e+01 1.0000000000000000e+01
-1.0000000000000000e+01 1.0000000000000000e+01
-1.0000000000000000e+01 1.0000000000000000e+01
ITEM: ENTRIES index c_angles
1 74.1626 
2 129.555 
3 103.971 
4 146.289 
5 140.467 
6 51.5172 
7 87.2805 
8 117.866 
9 126.434 
10 97.1095 
ITEM: TIMESTEP
16900
ITEM: NUMBER OF ENTRIES
10
ITEM: BOX BOUNDS pp pp pp
-1.0000000000000000e+01 1.0000000000000000e+01
-1.0000000000000000e+01 1.0000000000000000e+01
-1.0000000000000000e+01 1.0000000000000000e+01
ITEM: ENTRIES index c_angles
1 71.5453 
2 142.181 
3 107.926 
4 127.944 
5 150.368 
6 59.1982 
7 71.7836 
8 121.674 
9 146.593 
10 97.9058 
ITEM: TIMESTEP
17000
ITEM: NUMBER OF ENTRIES
10
ITEM: BOX BOUNDS pp pp pp
-1.0000000000000000e+01 1.0000000000000000e+01
-1.0000000000000000e+01 1.0000000000000000e+01
-1.0000000000000000e+01 1.0000000000000000e+01
ITEM: ENTRIES index c_angles
1 75.4493 
2 145.967 
3 108.73 
4 113.979 
5 159.464 
6 61.796 
7 58.798 
8 129.384 
9 161.694 
10 99.0236 
ITEM: TIMESTEP
17100
ITEM: NUMBER OF ENTRIES
10
ITEM: BOX BOUNDS pp pp pp
-1.0000000000000000e+01 1.0000000000000000e+01
-1.0000000000000000e+01 1.0000000000000000e+01
-1.0000000000000000e+01 1.0000000000000000e+01
ITEM: ENTRIES index c_angles
1 90.2002 
2 99.545 
3 108.196 
4 170.33 
5 141.937 
6 64.7032 
7 53.2784 
8 143.574 
9 145.458 
10 95.1392 
ITEM: TIMESTEP
17200
ITEM: NUMBER OF ENTRIES
10
ITEM: BOX BOUNDS pp pp pp
-1.0000000000000000e+01 1.0000000000000000e+01
-1.0000000000000000e+01 1.0000000000000000e+01
-1.0000000000000000e+01 1.0000000000000000e+01
ITEM: ENTRIES index c_angles
1 105.723 
2 88.0264 
3 102.929 
4 161.626 
5 132.233 
6 69.0484 
7 56.0148 
8 160.919 
9 128.391 
10 97.6015 
ITEM: TIMESTEP
17300
ITEM: NUMBER OF ENTRIES
10
ITEM: BOX BOUNDS pp pp pp
-1.0000000000000000e+01 1.0000000000000000e+01
-1.0000000000000000e+01 1.0000000000000000e+01
-1.0000000000000000e+01 1.0000000000000000e+01
ITEM: ENTRIES index c_angles
1 106.349 
2 79.053 
3 95.3534 
4 137.249 
5 127.504 
6 77.3764 
7 61.6633 
8 176.19 
9 118.819 
10 99.6732 
ITEM: TIMESTEP
17400
ITEM: NUMBER OF ENTRIES
10
ITEM: BOX BOUNDS pp pp pp
-1.0000000000000000e+01 1.0000000000000000e+01
-1.0000000000000000e+01 1.0000000000000000e+01
-1.0000000000000000e+01 1.0000000000000000e+01
ITEM: ENTRIES index c_angles
1 94.5826 
2 74.7652 
3 83.5988 
4 115.449 
5 126.741 
6 89.2976 
7 66.8528 
8 166.475 
9 114.657 
10 100.555 
ITEM: TIMESTEP
17500
ITEM: NUMBER OF ENTRIES
10
ITEM: BOX BOUNDS pp pp pp
-1.0000000000000000e+01 1.0000000000000000e+01
-1.0000000000000000e+01 1.0000000000000000e+01
-1.0000000000000000e+01 1.0000000000000000e+01
ITEM: ENTRIES index c_angles
1 82.668 
2 73.8044 
3 72.8901 
4 98.7288 
5 127.736 
6 104.207 
7 76.7789 
8 138.541 
9 111.956 
10 100.934 
ITEM: TIMESTEP
17600
ITEM: NUMBER OF ENTRIES
10
ITEM: BOX BOUNDS pp pp pp
-1.0000000000000000e+01 1.0000000000000000e+01
-1.0000000000000000e+01 1.0000000000000000e+01
-1.0000000000000000e+01 1.0000000000000000e+01
ITEM: ENTRIES index c_angles
1 73.257 
2 71.0961 
3 63.057 
4 87.3257 
5 127.566 
6 127.187 
7 89.2687 
8 115.154 
9 108.713 
10 96.4406 
ITEM: TIMESTEP
17700
ITEM: NUMBER OF ENTRIES
10
ITEM: BOX BOUNDS pp pp pp
-1.0000000000000000e+01 1.0000000000000000e+01
-1.0000000000000000e+01 1.0000000000000000e+01
-1.0000000000000000e+01 1.0000000000000000e+01
ITEM: ENTRIES index c_angles
1 66.1633 
2 63.9661 
3 57.0432 
4 76.3738 
5 122.288 
6 154.781 
7 106.008 
8 94.3679 
9 107.718 
10 90.043 
ITEM: TIMESTEP
17800
ITEM: NUMBER OF ENTRIES
10
ITEM: BOX BOUNDS pp pp pp
-1.0000000000000000e+01 1.0000000000000000e+01
-1.0000000000000000e+01 1.0000000000000000e+01
-1.0000000000000000e+01 1.0000000000000000e+01
ITEM: ENTRIES index c_angles
1 64.1203 
2 54.0136 
3 52.621 
4 71.7724 
5 114.912 
6 159.688 
7 124.298 
8 78.0821 
9 104.644 
10 87.7837 
ITEM: TIMESTEP
17900
ITEM: NUMBER OF ENTRIES
10
ITEM: BOX BOUNDS pp pp pp
-1.0000000000000000e+01 1.0000000000000000e+01
-1.0000000000000000e+01 1.0000000000000000e+01
-1.0000000000000000e+01 1.0000000000000000e+01
ITEM: ENTRIES index c_angles
1 68.0851 
2 41.269 
3 48.0853 
4 69.9186 
5 105.938 
6 125.176 
7 144.007 
8 68.4757 
9 96.8192 
10 89.4624 
ITEM: TIMESTEP
18000
ITEM: NUMBER OF ENTRIES
10
ITEM: BOX BOUNDS pp pp pp
-1.0000000000000000e+01 1.0000000000000000e+01
-1.0000000000000000e+01 1.0000000000000000e+01
-1.0000000000000000e+01 1.0000000000000000e+01
ITEM: ENTRIES index c_angles
1 70.9001 
2 34.4262 
3 44.329 
4 69.3197 
5 89.0575 
6 91.7157 
7 151.297 
8 60.513 
9 81.7505 
10 88.5082 
ITEM: TIMESTEP
18100
ITEM: NUMBER OF ENTRIES
10
ITEM: BOX BOUNDS pp pp pp
-1.0000000000000000e+01 1.0000000000000000e+01
-1.0000000000000000e+01 1.0000000000000000e+01
-1.0000000000000000e+01 1.0000000000000000e+01
ITEM: ENTRIES index c_angles
1 37.7813 
2 72.1041 
3 42.5774 
4 71.2869 
5 71.9009 
6 74.2986 
7 141.288 
8 56.4063 
9 64.6475 
10 93.2015 
ITEM: TIMESTEP
18200
ITEM: NUMBER OF ENTRIES
10
ITEM: BOX BOUNDS pp pp pp
-1.0000000000000000e+01 1.0000000000000000e+01
-1.0000000000000000e+01 1.0000000000000000e+01
-1.0000000000000000e+01 1.0000000000000000e+01
ITEM: ENTRIES index c_angles
1 44.696 
2 78.163 
3 35.6287 
4 72.8881 
5 56.9214 
6 65.9452 
7 128.334 
8 53.7187 
9 48.216 
10 93.7164 
ITEM: TIMESTEP
18300
ITEM: NUMBER OF ENTRIES
10
ITEM: BOX BOUNDS pp pp pp
-1.0000000000000000e+01 1.0000000000000000e+01
-1.0000000000000000e+01 1.0000000000000000e+01
-1.0000000000000000e+01 1.0000000000000000e+01
ITEM: ENTRIES index c_angles
1 46.6605 
2 85.8115 
3 23.8424 
4 77.8628 
5 46.0902 
6 60.3694 
7 120.085 
8 52.3512 
9 33.7917 
10 79.8128 
ITEM: TIMESTEP
18400
ITEM: NUMBER OF ENTRIES
10
ITEM: BOX BOUNDS pp pp pp
-1.0000000000000000e+01 1.0000000000000000e+01
-1.0000000000000000e+01 1.0000000000000000e+01
-1.0000000000000000e+01 1.0000000000000000e+01
ITEM: ENTRIES index c_angles
1 44.3104 
2 96.3164 
3 12.2716 
4 84.7777 
5 39.2132 
6 55.9083 
7 110.607 
8 53.8062 
9 25.5531 
10 53.9037 
ITEM: TIMESTEP
18500
ITEM: NUMBER OF ENTRIES
10
ITEM: BOX BOUNDS pp pp pp
-1.0000000000000000e+01 1.0000000000000000e+01
-1.0000000000000000e+01 1.0000000000000000e+01
-1.0000000000000000e+01 1.0000000000000000e+01
ITEM: ENTRIES index c_angles
1 44.7483 
2 99.9399 
3 6.58285 
4 91.6533 
5 33.8136 
6 53.1069 
7 102.076 
8 56.2211 
9 21.3793 
10 41.1778 
ITEM: TIMESTEP
18600
ITEM: NUMBER OF ENTRIES
10
ITEM: BOX BOUNDS pp pp pp
-1.0000000000000000e+01 1.0000000000000000e+01
-1.0000000000000000e+01 1.0000000000000000e+01
-1.0000000000000000e+01 1.0000000000000000e+01
ITEM: ENTRIES index c_angles
1 43.7292 
2 101.185 
3 7.68966 
4 101.861 
5 27.8659 
6 52.8299 
7 86.8023 
8 57.9261 
9 20.5491 
10 36.961 
ITEM: TIMESTEP
18700
ITEM: NUMBER OF ENTRIES
10
ITEM: BOX BOUNDS pp pp pp
-1.0000000000000000e+01 1.0000000000000000e+01
-1.0000000000000000e+01 1.0000000000000000e+01
-1.0000000000000000e+01 1.0000000000000000e+01
ITEM: ENTRIES index c_angles
1 40.0307 
2 104.723 
3 12.9423 
4 112.486 
5 21.8812 
6 60.4994 
7 70.9717 
8 63.2873 
9 21.3311 
10 38.1164 
ITEM: TIMESTEP
18800
ITEM: NUMBER OF ENTRIES
10
ITEM: BOX BOUNDS pp pp pp
-1.0000000000000000e+01 1.0000000000000000e+01
-1.0000000000000000e+01 1.0000000000000000e+01
-1.0000000000000000e+01 1.0000000000000000e+01
ITEM: ENTRIES index c_angles
1 33.7297 
2 111.14 
3 18.2639 
4 119.77 
5 20.0128 
6 72.6318 
7 57.4907 
8 64.7709 
9 26.6768 
10 40.3089 
ITEM: TIMESTEP
18900
ITEM: NUMBER OF ENTRIES
10
ITEM: BOX BOUNDS pp pp pp
-1.0000000000000000e+01 1.0000000000000000e+01
-1.0000000000000000e+01 1.0000000000000000e+01
-1.0000000000000000e+01 1.0000000000000000e+01
ITEM: ENTRIES index c_angles
1 24.9769 
2 110.915 
3 21.448 
4 122.305 
5 26.3447 
6 87.566 
7 45.4046 
8 68.0405 
9 37.0277 
10 46.485 
ITEM: TIMESTEP
19000
ITEM: NUMBER OF ENTRIES
10
ITEM: BOX BOUNDS pp pp pp
-1.0000000000000000e+01 1.0000000000000000e+01
-1.0000000000000000e+01 1.0000000000000000e+01
-1.0000000000000000e+01 1.0000000000000000e+01
ITEM: ENTRIES index c_angles
1 17.2808 
2 108.851 
3 23.619 
4 124.318 
5 50.9119 
6 99.8044 
7 36.3476 
8 75.3374 
9 45.7242 
10 55.0336 
ITEM: TIMESTEP
19100
ITEM: NUMBER OF ENTRIES
10
ITEM: BOX BOUNDS pp pp pp
-1.0000000000000000e+01 1.0000000000000000e+01
-1.0000000000000000e+01 1.0000000000000000e+01
-1.0000000000000000e+01 1.0000000000000000e+01
ITEM: ENTRIES index c_angles
1 10.6982 
2 102.584 
3 16.3026 
4 131.921 
5 77.9916 
6 110.267 
7 31.7904 
8 82.9692 
9 52.5408 
10 69.3043 
ITEM: TIMESTEP
19200
ITEM: NUMBER OF ENTRIES
10
ITEM: BOX BOUNDS pp pp pp
-1.0000000000000000e+01 1.0000000000000000e+01
-1.0000000000000000e+01 1.0000000000000000e+01
-1.0000000000000000e+01 1.0000000000000000e+01
ITEM: ENTRIES index c_angles
1 7.24337 
2 94.9147 
3 12.2059 
4 139.897 
5 91.6798 
6 113.9 
7 30.0515 
8 95.2171 
9 58.2943 
10 82.3785 
ITEM: TIMESTEP
19300
ITEM: NUMBER OF ENTRIES
10
ITEM: BOX BOUNDS pp pp pp
-1.0000000000000000e+01 1.0000000000000000e+01
-1.0000000000000000e+01 1.0000000000000000e+01
-1.0000000000000000e+01 1.0000000000000000e+01
ITEM: ENTRIES index c_angles
1 8.04024 
2 88.4079 
3 14.527 
4 145.84 
5 101.999 
6 113.525 
7 27.9856 
8 109.684 
9 65.782 
10 86.2976 
ITEM: TIMESTEP
19400
ITEM: NUMBER OF ENTRIES
10
ITEM: BOX BOUNDS pp pp pp
-1.0000000000000000e+01 1.0000000000000000e+01
-1.0000000000000000e+01 1.0000000000000000e+01
-1.0000000000000000e+01 1.0000000000000000e+01
ITEM: ENTRIES index c_angles
1 10.4153 
2 82.5526 
3 22.7603 
4 152.241 
5 112.546 
6 108.616 
7 28.5752 
8 115.688 
9 73.0916 
10 81.8176 
ITEM: TIMESTEP
19500
ITEM: NUMBER OF ENTRIES
10
ITEM: BOX BOUNDS pp pp pp
-1.0000000000000000e+01 1.0000000000000000e+01
-1.0000000000000000e+01 1.0000000000000000e+01
-1.0000000000000000e+01 1.0000000000000000e+01
ITEM: ENTRIES index c_angles
1 14.4086 
2 72.5545 
3 31.5928 
4 157.908 
5 118.234 
6 102.533 
7 32.3068 
8 109.382 
9 81.1815 
10 79.6816 
ITEM: TIMESTEP
19600
ITEM: NUMBER OF ENTRIES
10
ITEM: BOX BOUNDS pp pp pp
-1.0000000000000000e+01 1.0000000000000000e+01
-1.0000000000000000e+01 1.0000000000000000e+01
-1.0000000000000000e+01 1.0000000000000000e+01
ITEM: ENTRIES index c_angles
1 32.2724 
2 63.6131 
3 43.4067 
4 158.188 
5 123.257 
6 99.8065 
7 42.0877 
8 90.893 
9 89.4177 
10 76.6314 
ITEM: TIMESTEP
19700
ITEM: NUMBER OF ENTRIES
10
ITEM: BOX BOUNDS pp pp pp
-1.0000000000000000e+01 1.0000000000000000e+01
-1.0000000000000000e+01 1.0000000000000000e+01
-1.0000000000000000e+01 1.0000000000000000e+01
ITEM: ENTRIES index c_angles
1 58.6339 
2 53.1437 
3 63.5824 
4 160.402 
5 127.268 
6 100.681 
7 61.7503 
8 73.3271 
9 103.998 
10 74.6596 
ITEM: TIMESTEP
19800
ITEM: NUMBER OF ENTRIES
10
ITEM: BOX BOUNDS pp pp pp
-1.0000000000000000e+01 1.0000000000000000e+01
-1.0000000000000000e+01 1.0000000000000000e+01
-1.0000000000000000e+01 1.0000000000000000e+01
ITEM: ENTRIES index c_angles
1 84.8073 
2 44.1032 
3 84.6872 
4 162.715 
5 130.154 
6 108.431 
7 84.5771 
8 66.6534 
9 125.379 
10 73.8893 
ITEM: TIMESTEP
19900
ITEM: NUMBER OF ENTRIES
10
ITEM: BOX BOUNDS pp pp pp
-1.0000000000000000e+01 1.0000000000000000e+01
-1.0000000000000000e+01 1.0000000000000000e+01
-1.0000000000000000e+01 1.0000000000000000e+01
ITEM: ENTRIES index c_angles
1 99.6912 
2 35.4899 
3 96.2183 
4 163.443 
5 129.287 
6 130.148 
7 95.8064 
8 60.1904 
9 137.199 
10 72.8298 
ITEM: TIMESTEP
20000
ITEM: NUMBER OF ENTRIES
10
ITEM: BOX BOUNDS pp pp pp
-1.0000000000000000e+01 1.0000000000000000e+01
-1.0000000000000000e+01 1.0000000000000000e+01
-1.0000000000000000e+01 1.0000000000000000e+01
ITEM: ENTRIES index c_angles
1 100.002 
2 29.0138 
3 102.536 
4 163.312 
5 129.543 
6 167.864 
7 102.673 
8 48.6669 
9 123.236 
10 72.1921 
ITEM: TIMESTEP
20100
ITEM: NUMBER OF ENTRIES
10
ITEM: BOX BOUNDS pp pp pp
-1.0000000000000000e+01 1.0000000000000000e+01
-1.0000000000000000e+01 1.0000000000000000e+01
-1.0000000000000000e+01 1.0000000000000000e+01
ITEM: ENTRIES index c_angles
1 96.35 
2 25.2747 
3 103.021 
4 157.326 
5 129.877 
6 144.876 
7 110.041 
8 35.9513 
9 94.833 
10 75.9284 
ITEM: TIMESTEP
20200
ITEM: NUMBER OF ENTRIES
10
ITEM: BOX BOUNDS pp pp pp
-1.0000000000000000e+01 1.0000000000000000e+01
-1.0000000000000000e+01 1.0000000000000000e+01
-1.0000000000000000e+01 1.0000000000000000e+01
ITEM: ENTRIES index c_angles
1 95.0106 
2 24.871 
3 100.605 
4 149.111 
5 132.348 
6 105.464 
7 112.74 
8 23.5231 
9 72.9262 
10 80.6565 
ITEM: TIMESTEP
20300
ITEM: NUMBER OF ENTRIES
10
ITEM: BOX BOUNDS pp pp pp
-1.0000000000000000e+01 1.0000000000000000e+01
-1.0000000000000000e+01 1.0000000000000000e+01
-1.0000000000000000e+01 1.0000000000000000e+01
ITEM: ENTRIES index c_angles
1 97.5748 
2 20.1134 
3 100.854 
4 133.965 
5 152.268 
6 78.5159 
7 112.299 
8 14.896 
9 61.9525 
10 84.4827 
ITEM: TIMESTEP
20400
ITEM: NUMBER OF ENTRIES
10
ITEM: BOX BOUNDS pp pp pp
-1.0000000000000000e+01 1.0000000000000000e+01
-1.0000000000000000e+01 1.0000000000000000e+01
-1.0000000000000000e+01 1.0000000000000000e+01
ITEM: ENTRIES index c_angles
1 101.31 
2 13.3562 
3 104.932 
4 113.759 
5 159.159 
6 63.4419 
7 109.716 
8 11.8546 
9 56.2648 
10 86.3993 
ITEM: TIMESTEP
20500
ITEM: NUMBER OF ENTRIES
10
ITEM: BOX BOUNDS pp pp pp
-1.0000000000000000e+01 1.0000000000000000e+01
-1.0000000000000000e+01 1.0000000000000000e+01
-1.0000000000000000e+01 1.0000000000000000e+01
ITEM: ENTRIES index c_angles
1 106.631 
2 9.84724 
3 109.827 
4 91.4094 
5 129.192 
6 50.9589 
7 104.754 
8 21.7336 
9 55.0374 
10 92.4286 
ITEM: TIMESTEP
20600
ITEM: NUMBER OF ENTRIES
10
ITEM: BOX BOUNDS pp pp pp
-1.0000000000000000e+01 1.0000000000000000e+01
-1.0000000000000000e+01 1.0000000000000000e+01
-1.0000000000000000e+01 1.0000000000000000e+01
ITEM: ENTRIES index c_angles
1 114.045 
2 8.24593 
3 118.851 
4 75.1294 
5 98.5041 
6 39.2711 
7 102.655 
8 35.8719 
9 56.6156 
10 107.212 
ITEM: TIMESTEP
20700
ITEM: NUMBER OF ENTRIES
10
ITEM: BOX BOUNDS pp pp pp
-1.0000000000000000e+01 1.0000000000000000e+01
-1.0000000000000000e+01 1.0000000000000000e+01
-1.0000000000000000e+01 1.0000000000000000e+01
ITEM: ENTRIES index c_angles
1 122.664 
2 14.4666 
3 135.168 
4 63.9577 
5 79.8267 
6 32.8003 
7 101.542 
8 47.3626 
9 65.7593 
10 129.198 
ITEM: TIMESTEP
20800
ITEM: NUMBER OF ENTRIES
10
ITEM: BOX BOUNDS pp pp pp
-1.0000000000000000e+01 1.0000000000000000e+01
-1.0000000000000000e+01 1.0000000000000000e+01
-1.0000000000000000e+01 1.0000000000000000e+01
ITEM: ENTRIES index c_angles
1 120.29 
2 26.0039 
3 148.452 
4 52.2825 
5 71.0203 
6 34.9435 
7 104.232 
8 60.4679 
9 78.7907 
10 160.222 
ITEM: TIMESTEP
20900
ITEM: NUMBER OF ENTRIES
10
ITEM: BOX BOUNDS pp pp pp
-1.0000000000000000e+01 1.0000000000000000e+01
-1.0000000000000000e+01 1.0000000000000000e+01
-1.0000000000000000e+01 1.0000000000000000e+01
ITEM: ENTRIES index c_angles
1 107.35 
2 43.0532 
3 155.233 
4 42.4386 
5 67.4707 
6 41.9435 
7 106.525 
8 65.167 
9 87.579 
10 157.93 
ITEM: TIMESTEP
21000
ITEM: NUMBER OF ENTRIES
10
ITEM: BOX BOUNDS pp pp pp
-1.0000000000000000e+01 1.0000000000000000e+01
-1.0000000000000000e+01 1.0000000000000000e+01
-1.0000000000000000e+01 1.0000000000000000e+01
ITEM: ENTRIES index c_angles
1 94.1129 
2 63.8131 
3 156.509 
4 33.4268 
5 64.5948 
6 51.6771 
7 104.39 
8 69.3661 
9 93.0662 
10 127.979 
ITEM: TIMESTEP
21100
ITEM: NUMBER OF ENTRIES
10
ITEM: BOX BOUNDS pp pp pp
-1.0000000000000000e+01 1.0000000000000000e+01
-1.0000000000000000e+01 1.0000000000000000e+01
-1.0000000000000000e+01 1.0000000000000000e+01
ITEM: ENTRIES index c_angles
1 82.8456 
2 82.7587 
3 161.109 
4 30.5054 
5 66.9428 
6 102.559 
7 78.0902 
8 64.8812 
9 92.8092 
10 116.443 
ITEM: TIMESTEP
21200
ITEM: NUMBER OF ENTRIES
10
ITEM: BOX BOUNDS pp pp pp
-1.0000000000000000e+01 1.0000000000000000e+01
-1.0000000000000000e+01 1.0000000000000000e+01
-1.0000000000000000e+01 1.0000000000000000e+01
ITEM: ENTRIES index c_angles
1 77.2146 
2 95.0776 
3 157.63 
4 26.3076 
5 73.1533 
6 98.3866 
7 87.3472 
8 81.2707 
9 85.7506 
10 114.609 
ITEM: TIMESTEP
21300
ITEM: NUMBER OF ENTRIES
10
ITEM: BOX BOUNDS pp pp pp
-1.0000000000000000e+01 1.0000000000000000e+01
-1.0000000000000000e+01 1.0000000000000000e+01
-1.0000000000000000e+01 1.0000000000000000e+01
ITEM: ENTRIES index c_angles
1 70.9767 
2 104.923 
3 150.517 
4 21.6067 
5 85.4366 
6 92.0601 
7 100.084 
8 102.269 
9 80.8585 
10 118.664 
ITEM: TIMESTEP
21400
ITEM: NUMBER OF ENTRIES
10
ITEM: BOX BOUNDS pp pp pp
-1.0000000000000000e+01 1.0000000000000000e+01
-1.0000000000000000e+01 1.0000000000000000e+01
-1.0000000000000000e+01 1.0000000000000000e+01
ITEM: ENTRIES index c_angles
1 62.2413 
2 109.293 
3 143.824 
4 23.7969 
5 101.388 
6 86.4272 
7 117.717 
8 122.075 
9 82.482 
10 124.821 
ITEM: TIMESTEP
21500
ITEM: NUMBER OF ENTRIES
10
ITEM: BOX BOUNDS pp pp pp
-1.0000000000000000e+01 1.0000000000000000e+01
-1.0000000000000000e+01 1.0000000000000000e+01
-1.0000000000000000e+01 1.0000000000000000e+01
ITEM: ENTRIES index c_angles
1 48.8903 
2 112.404 
3 137.606 
4 28.7849 
5 111.383 
6 79.7073 
7 138.941 
8 135.987 
9 87.9219 
10 139.287 
ITEM: TIMESTEP
21600
ITEM: NUMBER OF ENTRIES
10
ITEM: BOX BOUNDS pp pp pp
-1.0000000000000000e+01 1.0000000000000000e+01
-1.0000000000000000e+01 1.0000000000000000e+01
-1.0000000000000000e+01 1.0000000000000000e+01
ITEM: ENTRIES index c_angles
1 41.7918 
2 113.719 
3 137.887 
4 35.3713 
5 121.936 
6 76.8468 
7 156.271 
8 144.597 
9 92.9459 
10 159.956 
ITEM: TIMESTEP
21700
ITEM: NUMBER OF ENTRIES
10
ITEM: BOX BOUNDS pp pp pp
-1.0000000000000000e+01 1.0000000000000000e+01
-1.0000000000000000e+01 1.0000000000000000e+01
-1.0000000000000000e+01 1.0000000000000000e+01
ITEM: ENTRIES index c_angles
1 42.4824 
2 115.872 
3 143.565 
4 42.7536 
5 126.541 
6 81.3556 
7 152.505 
8 153.284 
9 97.5175 
10 171.849 
ITEM: TIMESTEP
21800
ITEM: NUMBER OF ENTRIES
10
ITEM: BOX BOUNDS pp pp pp
-1.0000000000000000e+01 1.0000000000000000e+01
-1.0000000000000000e+01 1.0000000000000000e+01
-1.0000000000000000e+01 1.0000000000000000e+01
ITEM: ENTRIES index c_angles
1 42.3528 
2 119.371 
3 148.494 
4 48.1048 
5 127.136 
6 87.0453 
7 135.59 
8 156.069 
9 99.2953 
10 143.833 
ITEM: TIMESTEP
21900
ITEM: NUMBER OF ENTRIES
10
ITEM: BOX BOUNDS pp pp pp
-1.0000000000000000e+01 1.0000000000000000e+01
-1.0000000000000000e+01 1.0000000000000000e+01
-1.0000000000000000e+01 1.0000000000000000e+01
ITEM: ENTRIES index c_angles
1 48.0104 
2 118.606 
3 149.123 
4 55.2052 
5 127.497 
6 93.2673 
7 128.681 
8 152.585 
9 100.967 
10 120.193 
ITEM: TIMESTEP
22000
ITEM: NUMBER OF ENTRIES
10
ITEM: BOX BOUNDS pp pp pp
-1.0000000000000000e+01 1.0000000000000000e+01
-1.0000000000000000e+01 1.0000000000000000e+01
-1.0000000000000000e+01 1.0000000000000000e+01
ITEM: ENTRIES index c_angles
1 63.1739 
2 119.716 
3 147.827 
4 65.5136 
5 121.456 
6 100.22 
7 127.706 
8 142.467 
9 104.06 
10 102.234 
ITEM: TIMESTEP
22100
ITEM: NUMBER OF ENTRIES
10
ITEM: BOX BOUNDS pp pp pp
-1.0000000000000000e+01 1.0000000000000000e+01
-1.0000000000000000e+01 1.0000000000000000e+01
-1.0000000000000000e+01 1.0000000000000000e+01
ITEM: ENTRIES index c_angles
1 79.767 
2 121.442 
3 139.471 
4 103.895 
5 116.379 
6 77.5866 
7 128.077 
8 133.862 
9 112.576 
10 88.5596 
ITEM: TIMESTEP
22200
ITEM: NUMBER OF ENTRIES
10
ITEM: BOX BOUNDS pp pp pp
-1.0000000000000000e+01 1.0000000000000000e+01
-1.0000000000000000e+01 1.0000000000000000e+01
-1.0000000000000000e+01 1.0000000000000000e+01
ITEM: ENTRIES index c_angles
1 95.8023 
2 122.884 
3 128.505 
4 92.8636 
5 110.391 
6 83.867 
7 125.798 
8 115.393 
9 114.252 
10 82.1972 
ITEM: TIMESTEP
22300
ITEM: NUMBER OF ENTRIES
10
ITEM: BOX BOUNDS pp pp pp
-1.0000000000000000e+01 1.0000000000000000e+01
-1.0000000000000000e+01 1.0000000000000000e+01
-1.0000000000000000e+01 1.0000000000000000e+01
ITEM: ENTRIES index c_angles
1 109.128 
2 119.635 
3 116.739 
4 80.9965 
5 108.782 
6 87.8741 
7 123.423 
8 97.4173 
9 108.563 
10 84.0136 
ITEM: TIMESTEP
22400
ITEM: NUMBER OF ENTRIES
10
ITEM: BOX BOUNDS pp pp pp
-1.0000000000000000e+01 1.0000000000000000e+01
-1.0000000000000000e+01 1.0000000000000000e+01
-1.0000000000000000e+01 1.0000000000000000e+01
ITEM: ENTRIES index c_angles
1 120.619 
2 122.646 
3 103.066 
4 73.5352 
5 112.195 
6 88.7471 
7 119.016 
8 76.6422 
9 101.319 
10 89.0225 
ITEM: TIMESTEP
22500
ITEM: NUMBER OF ENTRIES
10
ITEM: BOX BOUNDS pp pp pp
-1.0000000000000000e+01 1.0000000000000000e+01
-1.0000000000000000e+01 1.0000000000000000e+01
-1.0000000000000000e+01 1.0000000000000000e+01
ITEM: ENTRIES index c_angles
1 127.701 
2 123.072 
3 96.5995 
4 69.4376 
5 112.376 
6 87.9326 
7 121.805 
8 59.7059 
9 95.4236 
10 92.496 
ITEM: TIMESTEP
22600
ITEM: NUMBER OF ENTRIES
10
ITEM: BOX BOUNDS pp pp pp
-1.0000000000000000e+01 1.0000000000000000e+01
-1.0000000000000000e+01 1.0000000000000000e+01
-1.0000000000000000e+01 1.0000000000000000e+01
ITEM: ENTRIES index c_angles
1 143.298 
2 124.674 
3 91.7775 
4 69.8006 
5 113.531 
6 90.5367 
7 130.963 
8 44.7323 
9 87.5094 
10 95.686 
ITEM: TIMESTEP
22700
ITEM: NUMBER OF ENTRIES
10
ITEM: BOX BOUNDS pp pp pp
-1.0000000000000000e+01 1.0000000000000000e+01
-1.0000000000000000e+01 1.0000000000000000e+01
-1.0000000000000000e+01 1.0000000000000000e+01
ITEM: ENTRIES index c_angles
1 151.829 
2 128.781 
3 87.3049 
4 75.4852 
5 116.499 
6 97.0445 
7 146.604 
8 36.042 
9 74.4043 
10 95.731 
ITEM: TIMESTEP
22800
ITEM: NUMBER OF ENTRIES
10
ITEM: BOX BOUNDS pp pp pp
-1.0000000000000000e+01 1.0000000000000000e+01
-1.0000000000000000e+01 1.0000000000000000e+01
-1.0000000000000000e+01 1.0000000000000000e+01
ITEM: ENTRIES index c_angles
1 159.234 
2 130.994 
3 80.5723 
4 79.5173 
5 113.108 
6 107.153 
7 165.471 
8 28.8052 
9 61.3824 
10 92.9971 
ITEM: TIMESTEP
22900
ITEM: NUMBER OF ENTRIES
10
ITEM: BOX BOUNDS pp pp pp
-1.0000000000000000e+01 1.0000000000000000e+01
-1.0000000000000000e+01 1.0000000000000000e+01
-1.0000000000000000e+01 1.0000000000000000e+01
ITEM: ENTRIES index c_angles
1 166.11 
2 133.167 
3 80.2742 
4 84.3387 
5 102.6 
6 119.705 
7 161.423 
8 24.8065 
9 52.9589 
10 90.0114 
ITEM: TIMESTEP
23000
ITEM: NUMBER OF ENTRIES
10
ITEM: BOX BOUNDS pp pp pp
-1.0000000000000000e+01 1.0000000000000000e+01
-1.0000000000000000e+01 1.0000000000000000e+01
-1.0000000000000000e+01 1.0000000000000000e+01
ITEM: ENTRIES index c_angles
1 170.006 
2 132.291 
3 85.7452 
4 90.7538 
5 93.9867 
6 135.541 
7 144.727 
8 28.3454 
9 47.7457 
10 86.6412 
ITEM: TIMESTEP
23100
ITEM: NUMBER OF ENTRIES
10
ITEM: BOX BOUNDS pp pp pp
-1.0000000000000000e+01 1.0000000000000000e+01
-1.0000000000000000e+01 1.0000000000000000e+01
-1.0000000000000000e+01 1.0000000000000000e+01
ITEM: ENTRIES index c_angles
1 167.051 
2 122.965 
3 98.1832 
4 97.473 
5 87.5327 
6 152.571 
7 92.4143 
8 45.1739 
9 126.991 
10 86.6361 
ITEM: TIMESTEP
23200
ITEM: NUMBER OF ENTRIES
10
ITEM: BOX BOUNDS pp pp pp
-1.0000000000000000e+01 1.0000000000000000e+01
-1.0000000000000000e+01 1.0000000000000000e+01
-1.0000000000000000e+01 1.0000000000000000e+01
ITEM: ENTRIES index c_angles
1 167.129 
2 113.755 
3 112.168 
4 102.08 
5 82.5126 
6 169.425 
7 129.247 
8 46.9239 
9 122.179 
10 90.8667 
ITEM: TIMESTEP
23300
ITEM: NUMBER OF ENTRIES
10
ITEM: BOX BOUNDS pp pp pp
-1.0000000000000000e+01 1.0000000000000000e+01
-1.0000000000000000e+01 1.0000000000000000e+01
-1.0000000000000000e+01 1.0000000000000000e+01
ITEM: ENTRIES index c_angles
1 177.352 
2 106.698 
3 122.021 
4 97.9973 
5 81.8879 
6 168.43 
7 130.84 
8 51.3247 
9 122.568 
10 95.1768 
ITEM: TIMESTEP
23400
ITEM: NUMBER OF ENTRIES
10
ITEM: BOX BOUNDS pp pp pp
-1.0000000000000000e+01 1.0000000000000000e+01
-1.0000000000000000e+01 1.0000000000000000e+01
-1.0000000000000000e+01 1.0000000000000000e+01
ITEM: ENTRIES index c_angles
1 168.68 
2 104.363 
3 125.592 
4 88.4601 
5 83.6041 
6 140.387 
7 123.347 
8 58.152 
9 125.474 
10 99.8483 
ITEM: TIMESTEP
23500
ITEM: NUMBER OF ENTRIES
10
ITEM: BOX BOUNDS pp pp pp
-1.0000000000000000e+01 1.0000000000000000e+01
-1.0000000000000000e+01 1.0000000000000000e+01
-1.0000000000000000e+01 1.0000000000000000e+01
ITEM: ENTRIES index c_angles
1 151.281 
2 105.016 
3 122.862 
4 79.5443 
5 87.852 
6 111.068 
7 117.942 
8 64.7803 
9 128.494 
10 101.759 
ITEM: TIMESTEP
23600
ITEM: NUMBER OF ENTRIES
10
ITEM: BOX BOUNDS pp pp pp
-1.0000000000000000e+01 1.0000000000000000e+01
-1.0000000000000000e+01 1.0000000000000000e+01
-1.0000000000000000e+01 1.0000000000000000e+01
ITEM: ENTRIES index c_angles
1 137.669 
2 112.907 
3 120.798 
4 75.6948 
5 91.9419 
6 90.4005 
7 122.138 
8 69.4568 
9 133.883 
10 97.9383 
ITEM: TIMESTEP
23700
ITEM: NUMBER OF ENTRIES
10
ITEM: BOX BOUNDS pp pp pp
-1.0000000000000000e+01 1.0000000000000000e+01
-1.0000000000000000e+01 1.0000000000000000e+01
-1.0000000000000000e+01 1.0000000000000000e+01
ITEM: ENTRIES index c_angles
1 126.994 
2 126.463 
3 118.559 
4 71.6174 
5 96.8389 
6 79.3318 
7 135.119 
8 73.3269 
9 138.629 
10 97.4255 
ITEM: TIMESTEP
23800
ITEM: NUMBER OF ENTRIES
10
ITEM: BOX BOUNDS pp pp pp
-1.0000000000000000e+01 1.0000000000000000e+01
-1.0000000000000000e+01 1.0000000000000000e+01
-1.0000000000000000e+01 1.0000000000000000e+01
ITEM: ENTRIES index c_angles
1 117.258 
2 138.28 
3 112.618 
4 67.2461 
5 103.401 
6 71.0303 
7 147.774 
8 64.4638 
9 148.446 
10 101.952 
ITEM: TIMESTEP
23900
ITEM: NUMBER OF ENTRIES
10
ITEM: BOX BOUNDS pp pp pp
-1.0000000000000000e+01 1.0000000000000000e+01
-1.0000000000000000e+01 1.0000000000000000e+01
-1.0000000000000000e+01 1.0000000000000000e+01
ITEM: ENTRIES index c_angles
1 109.709 
2 146.264 
3 103.055 
4 58.8487 
5 108.652 
6 65.2064 
7 158.045 
8 55.4898 
9 161.361 
10 101.917 
ITEM: TIMESTEP
24000
ITEM: NUMBER OF ENTRIES
10
ITEM: BOX BOUNDS pp pp pp
-1.0000000000000000e+01 1.0000000000000000e+01
-1.0000000000000000e+01 1.0000000000000000e+01
-1.0000000000000000e+01 1.0000000000000000e+01
ITEM: ENTRIES index c_angles
1 105.205 
2 145.828 
3 100.783 
4 50.742 
5 107.675 
6 60.8194 
7 152.08 
8 49.1762 
9 169.305 
10 103.149 
ITEM: TIMESTEP
24100
ITEM: NUMBER OF ENTRIES
10
ITEM: BOX BOUNDS pp pp pp
-1.0000000000000000e+01 1.0000000000000000e+01
-1.0000000000000000e+01 1.0000000000000000e+01
-1.0000000000000000e+01 1.0000000000000000e+01
ITEM: ENTRIES index c_angles
1 106.843 
2 123.594 
3 99.9385 
4 44.4668 
5 104.181 
6 56.2491 
7 134.943 
8 46.1803 
9 170.315 
10 109.791 
ITEM: TIMESTEP
24200
ITEM: NUMBER OF ENTRIES
10
ITEM: BOX BOUNDS pp pp pp
-1.0000000000000000e+01 1.0000000000000000e+01
-1.0000000000000000e+01 1.0000000000000000e+01
-1.0000000000000000e+01 1.0000000000000000e+01
ITEM: ENTRIES index c_angles
1 110.751 
2 98.6346 
3 101.94 
4 40.8555 
5 49.662 
6 103.317 
7 122.876 
8 46.9731 
9 165.957 
10 110.307 
ITEM: TIMESTEP
24300
ITEM: NUMBER OF ENTRIES
10
ITEM: BOX BOUNDS pp pp pp
-1.0000000000000000e+01 1.0000000000000000e+01
-1.0000000000000000e+01 1.0000000000000000e+01
-1.0000000000000000e+01 1.0000000000000000e+01
ITEM: ENTRIES index c_angles
1 116.449 
2 82.4487 
3 108.618 
4 45.9757 
5 37.0507 
6 105.782 
7 123.812 
8 52.1884 
9 157.476 
10 110.529 
ITEM: TIMESTEP
24400
ITEM: NUMBER OF ENTRIES
10
ITEM: BOX BOUNDS pp pp pp
-1.0000000000000000e+01 1.0000000000000000e+01
-1.0000000000000000e+01 1.0000000000000000e+01
-1.0000000000000000e+01 1.0000000000000000e+01
ITEM: ENTRIES index c_angles
1 123.367 
2 64.2088 
3 118.98 
4 52.301 
5 24.5114 
6 107.607 
7 132.792 
8 59.9902 
9 151.163 
10 107.783 
ITEM: TIMESTEP
24500
ITEM: NUMBER OF ENTRIES
10
ITEM: BOX BOUNDS pp pp pp
-1.0000000000000000e+01 1.0000000000000000e+01
-1.0000000000000000e+01 1.0000000000000000e+01
-1.0000000000000000e+01 1.0000000000000000e+01
ITEM: ENTRIES index c_angles
1 134.598 
2 46.8064 
3 132.695 
4 56.724 
5 35.7848 
6 114.044 
7 143.464 
8 68.7217 
9 144.829 
10 104.134 
ITEM: TIMESTEP
24600
ITEM: NUMBER OF ENTRIES
10
ITEM: BOX BOUNDS pp pp pp
-1.0000000000000000e+01 1.0000000000000000e+01
-1.0000000000000000e+01 1.0000000000000000e+01
-1.0000000000000000e+01 1.0000000000000000e+01
ITEM: ENTRIES index c_angles
1 143.74 
2 31.9629 
3 150.431 
4 55.2973 
5 42.3396 
6 122.341 
7 150.77 
8 72.03 
9 124.36 
10 93.0264 
ITEM: TIMESTEP
24700
ITEM: NUMBER OF ENTRIES
10
ITEM: BOX BOUNDS pp pp pp
-1.0000000000000000e+01 1.0000000000000000e+01
-1.0000000000000000e+01 1.0000000000000000e+01
-1.0000000000000000e+01 1.0000000000000000e+01
ITEM: ENTRIES index c_angles
1 145.218 
2 20.1583 
3 169.265 
4 53.6131 
5 43.0113 
6 132.525 
7 151.612 
8 70.9991 
9 99.966 
10 81.9935 
ITEM: TIMESTEP
24800
ITEM: NUMBER OF ENTRIES
10
ITEM: BOX BOUNDS pp pp pp
-1.0000000000000000e+01 1.0000000000000000e+01
-1.0000000000000000e+01 1.0000000000000000e+01
-1.0000000000000000e+01 1.0000000000000000e+01
ITEM: ENTRIES index c_angles
1 129.131 
2 9.74867 
3 172.354 
4 52.7927 
5 44.6951 
6 141.724 
7 145.237 
8 66.2922 
9 85.337 
10 71.1201 
ITEM: TIMESTEP
24900
ITEM: NUMBER OF ENTRIES
10
ITEM: BOX BOUNDS pp pp pp
-1.0000000000000000e+01 1.0000000000000000e+01
-1.0000000000000000e+01 1.0000000000000000e+01
-1.0000000000000000e+01 1.0000000000000000e+01
ITEM: ENTRIES index c_angles
1 108.333 
2 10.2157 
3 154.524 
4 56.9236 
5 47.471 
6 153.649 
7 136.338 
8 57.6275 
9 77.5548 
10 62.1196 
ITEM: TIMESTEP
25000
ITEM: NUMBER OF ENTRIES
10
ITEM: BOX BOUNDS pp pp pp
-1.0000000000000000e+01 1.0000000000000000e+01
-1.0000000000000000e+01 1.0000000000000000e+01
-1.0000000000000000e+01 1.0000000000000000e+01
ITEM: ENTRIES index c_angles
1 93.8723 
2 25.4742 
3 139.098 
4 64.8811 
5 49.7559 
6 161.842 
7 130.83 
8 53.1044 
9 74.4217 
10 57.8367 
ITEM: TIMESTEP
25100
ITEM: NUMBER OF ENTRIES
10
ITEM: BOX BOUNDS pp pp pp
-1.0000000000000000e+01 1.0000000000000000e+01
-1.0000000000000000e+01 1.0000000000000000e+01
-1.0000000000000000e+01 1.0000000000000000e+01
ITEM: ENTRIES index c_angles
1 81.4299 
2 33.6774 
3 124.125 
4 80.5065 
5 53.9493 
6 163.897 
7 124.698 
8 52.7184 
9 76.1893 
10 54.9039 
ITEM: TIMESTEP
25200
ITEM: NUMBER OF ENTRIES
10
ITEM: BOX BOUNDS pp pp pp
-1.0000000000000000e+01 1.0000000000000000e+01
-1.0000000000000000e+01 1.0000000000000000e+01
-1.0000000000000000e+01 1.0000000000000000e+01
ITEM: ENTRIES index c_angles
1 74.2677 
2 95.5673 
3 39.8663 
4 117.338 
5 65.7476 
6 154.884 
7 116.785 
8 54.3898 
9 81.0499 
10 53.7974 
ITEM: TIMESTEP
25300
ITEM: NUMBER OF ENTRIES
10
ITEM: BOX BOUNDS pp pp pp
-1.0000000000000000e+01 1.0000000000000000e+01
-1.0000000000000000e+01 1.0000000000000000e+01
-1.0000000000000000e+01 1.0000000000000000e+01
ITEM: ENTRIES index c_angles
1 72.5129 
2 102.997 
3 44.1133 
4 113.914 
5 79.7252 
6 146.134 
7 109.479 
8 56.5966 
9 84.9717 
10 53.2684 
ITEM: TIMESTEP
25400
ITEM: NUMBER OF ENTRIES
10
ITEM: BOX BOUNDS pp pp pp
-1.0000000000000000e+01 1.0000000000000000e+01
-1.0000000000000000e+01 1.0000000000000000e+01
-1.0000000000000000e+01 1.0000000000000000e+01
ITEM: ENTRIES index c_angles
1 72.0821 
2 101.355 
3 48.2572 
4 113.055 
5 82.8104 
6 141.552 
7 107.474 
8 60.1963 
9 88.0358 
10 57.6102 
ITEM: TIMESTEP
25500
ITEM: NUMBER OF ENTRIES
10
ITEM: BOX BOUNDS pp pp pp
-1.0000000000000000e+01 1.0000000000000000e+01
-1.0000000000000000e+01 1.0000000000000000e+01
-1.0000000000000000e+01 1.0000000000000000e+01
ITEM: ENTRIES index c_angles
1 68.7628 
2 91.3243 
3 54.6701 
4 113.783 
5 78.9389 
6 141.46 
7 110.868 
8 61.2445 
9 90.33 
10 58.7889 
ITEM: TIMESTEP
25600
ITEM: NUMBER OF ENTRIES
10
ITEM: BOX BOUNDS pp pp pp
-1.0000000000000000e+01 1.0000000000000000e+01
-1.0000000000000000e+01 1.0000000000000000e+01
-1.0000000000000000e+01 1.0000000000000000e+01
ITEM: ENTRIES index c_angles
1 64.8335 
2 90.3691 
3 63.5502 
4 120.937 
5 72.2802 
6 140.376 
7 114.128 
8 63.4294 
9 90.127 
10 58.1638 
ITEM: TIMESTEP
25700
ITEM: NUMBER OF ENTRIES
10
ITEM: BOX BOUNDS pp pp pp
-1.0000000000000000e+01 1.0000000000000000e+01
-1.0000000000000000e+01 1.0000000000000000e+01
-1.0000000000000000e+01 1.0000000000000000e+01
ITEM: ENTRIES index c_angles
1 62.7735 
2 88.0703 
3 73.4568 
4 128.413 
5 63.7749 
6 135.135 
7 116.794 
8 69.6618 
9 89.8002 
10 56.6356 
ITEM: TIMESTEP
25800
ITEM: NUMBER OF ENTRIES
10
ITEM: BOX BOUNDS pp pp pp
-1.0000000000000000e+01 1.0000000000000000e+01
-1.0000000000000000e+01 1.0000000000000000e+01
-1.0000000000000000e+01 1.0000000000000000e+01
ITEM: ENTRIES index c_angles
1 62.176 
2 85.6738 
3 90.3243 
4 120.329 
5 65.5053 
6 127.936 
7 117.414 
8 74.9904 
9 98.3394 
10 53.3176 
ITEM: TIMESTEP
25900
ITEM: NUMBER OF ENTRIES
10
ITEM: BOX BOUNDS pp pp pp
-1.0000000000000000e+01 1.0000000000000000e+01
-1.0000000000000000e+01 1.0000000000000000e+01
-1.0000000000000000e+01 1.0000000000000000e+01
ITEM: ENTRIES index c_angles
1 62.8376 
2 83.1367 
3 109.295 
4 96.7637 
5 69.6454 
6 124.699 
7 115.438 
8 74.1348 
9 108.709 
10 52.8573 
ITEM: TIMESTEP
26000
ITEM: NUMBER OF ENTRIES
10
ITEM: BOX BOUNDS pp pp pp
-1.0000000000000000e+01 1.0000000000000000e+01
-1.0000000000000000e+01 1.0000000000000000e+01
-1.0000000000000000e+01 1.0000000000000000e+01
ITEM: ENTRIES index c_angles
1 65.1154 
2 81.8098 
3 114.719 
4 73.7868 
5 74.6242 
6 121.045 
7 116.381 
8 74.3727 
9 118.13 
10 60.11 
ITEM: TIMESTEP
26100
ITEM: NUMBER OF ENTRIES
10
ITEM: BOX BOUNDS pp pp pp
-1.0000000000000000e+01 1.0000000000000000e+01
-1.0000000000000000e+01 1.0000000000000000e+01
-1.0000000000000000e+01 1.0000000000000000e+01
ITEM: ENTRIES index c_angles
1 69.4974 
2 81.418 
3 117.879 
4 57.1588 
5 81.8901 
6 116.933 
7 119.119 
8 76.7551 
9 120.468 
10 73.4251 
ITEM: TIMESTEP
26200
ITEM: NUMBER OF ENTRIES
10
ITEM: BOX BOUNDS pp pp pp
-1.0000000000000000e+01 1.0000000000000000e+01
-1.0000000000000000e+01 1.0000000000000000e+01
-1.0000000000000000e+01 1.0000000000000000e+01
ITEM: ENTRIES index c_angles
1 76.4988 
2 80.8961 
3 119.323 
4 42.0145 
5 114.621 
6 92.9983 
7 121.29 
8 117.743 
9 81.7887 
10 86.5907 
ITEM: TIMESTEP
26300
ITEM: NUMBER OF ENTRIES
10
ITEM: BOX BOUNDS pp pp pp
-1.0000000000000000e+01 1.0000000000000000e+01
-1.0000000000000000e+01 1.0000000000000000e+01
-1.0000000000000000e+01 1.0000000000000000e+01
ITEM: ENTRIES index c_angles
1 89.2969 
2 81.0256 
3 123.102 
4 29.3722 
5 114.125 
6 101.515 
7 118.259 
8 106.361 
9 80.7294 
10 100.445 
ITEM: TIMESTEP
26400
ITEM: NUMBER OF ENTRIES
10
ITEM: BOX BOUNDS pp pp pp
-1.0000000000000000e+01 1.0000000000000000e+01
-1.0000000000000000e+01 1.0000000000000000e+01
-1.0000000000000000e+01 1.0000000000000000e+01
ITEM: ENTRIES index c_angles
1 110.045 
2 79.3564 
3 129.29 
4 18.3204 
5 99.6939 
6 102.237 
7 113.38 
8 94.1404 
9 77.1882 
10 116.114 
ITEM: TIMESTEP
26500
ITEM: NUMBER OF ENTRIES
10
ITEM: BOX BOUNDS pp pp pp
-1.0000000000000000e+01 1.0000000000000000e+01
-1.0000000000000000e+01 1.0000000000000000e+01
-1.0000000000000000e+01 1.0000000000000000e+01
ITEM: ENTRIES index c_angles
1 135.745 
2 76.6185 
3 134.792 
4 11.4219 
5 69.4683 
6 99.1226 
7 113.13 
8 83.8203 
9 78.8203 
10 137.217 
ITEM: TIMESTEP
26600
ITEM: NUMBER OF ENTRIES
10
ITEM: BOX BOUNDS pp pp pp
-1.0000000000000000e+01 1.0000000000000000e+01
-1.0000000000000000e+01 1.0000000000000000e+01
-1.0000000000000000e+01 1.0000000000000000e+01
ITEM: ENTRIES index c_angles
1 161.05 
2 73.6037 
3 141.195 
4 6.12865 
5 40.4883 
6 93.5065 
7 115.507 
8 78.125 
9 84.366 
10 153.923 
ITEM: TIMESTEP
26700
ITEM: NUMBER OF ENTRIES
10
ITEM: BOX BOUNDS pp pp pp
-1.0000000000000000e+01 1.0000000000000000e+01
-1.0000000000000000e+01 1.0000000000000000e+01
-1.0000000000000000e+01 1.0000000000000000e+01
ITEM: ENTRIES index c_angles
1 155.506 
2 67.8159 
3 149.786 
4 9.66413 
5 25.1119 
6 88.9398 
7 115.635 
8 74.1711 
9 91.882 
10 165.468 
ITEM: TIMESTEP
26800
ITEM: NUMBER OF ENTRIES
10
ITEM: BOX BOUNDS pp pp pp
-1.0000000000000000e+01 1.0000000000000000e+01
-1.0000000000000000e+01 1.0000000000000000e+01
-1.0000000000000000e+01 1.0000000000000000e+01
ITEM: ENTRIES index c_angles
1 134.684 
2 66.0128 
3 149.682 
4 19.8954 
5 24.9927 
6 86.1328 
7 106.868 
8 70.8348 
9 98.9788 
10 169.148 
ITEM: TIMESTEP
26900
ITEM: NUMBER OF ENTRIES
10
ITEM: BOX BOUNDS pp pp pp
-1.0000000000000000e+01 1.0000000000000000e+01
-1.0000000000000000e+01 1.0000000000000000e+01
-1.0000000000000000e+01 1.0000000000000000e+01
ITEM: ENTRIES index c_angles
1 114.741 
2 58.1823 
3 139.004 
4 39.3889 
5 28.1377 
6 85.5922 
7 97.5882 
8 70.649 
9 106.664 
10 162.346 
ITEM: TIMESTEP
27000
ITEM: NUMBER OF ENTRIES
10
ITEM: BOX BOUNDS pp pp pp
-1.0000000000000000e+01 1.0000000000000000e+01
-1.0000000000000000e+01 1.0000000000000000e+01
-1.0000000000000000e+01 1.0000000000000000e+01
ITEM: ENTRIES index c_angles
1 103.158 
2 50.4159 
3 131.308 
4 57.5819 
5 32.7436 
6 83.5862 
7 93.8484 
8 71.0885 
9 109.501 
10 158.995 
ITEM: TIMESTEP
27100
ITEM: NUMBER OF ENTRIES
10
ITEM: BOX BOUNDS pp pp pp
-1.0000000000000000e+01 1.0000000000000000e+01
-1.0000000000000000e+01 1.0000000000000000e+01
-1.0000000000000000e+01 1.0000000000000000e+01
ITEM: ENTRIES index c_angles
1 100.286 
2 48.1126 
3 126.17 
4 71.0871 
5 80.8513 
6 39.3032 
7 89.0963 
8 104.534 
9 70.186 
10 160.912 
ITEM: TIMESTEP
27200
ITEM: NUMBER OF ENTRIES
10
ITEM: BOX BOUNDS pp pp pp
-1.0000000000000000e+01 1.0000000000000000e+01
-1.0000000000000000e+01 1.0000000000000000e+01
-1.0000000000000000e+01 1.0000000000000000e+01
ITEM: ENTRIES index c_angles
1 102.553 
2 46.5039 
3 121.613 
4 82.1906 
5 82.5102 
6 50.0071 
7 79.8713 
8 99.6646 
9 72.7182 
10 161.66 
ITEM: TIMESTEP
27300
ITEM: NUMBER OF ENTRIES
10
ITEM: BOX BOUNDS pp pp pp
-1.0000000000000000e+01 1.0000000000000000e+01
-1.0000000000000000e+01 1.0000000000000000e+01
-1.0000000000000000e+01 1.0000000000000000e+01
ITEM: ENTRIES index c_angles
1 104.992 
2 44.3433 
3 115.831 
4 92.9012 
5 88.0016 
6 63.4647 
7 74.1298 
8 103.064 
9 77.5486 
10 157.913 
ITEM: TIMESTEP
27400
ITEM: NUMBER OF ENTRIES
10
ITEM: BOX BOUNDS pp pp pp
-1.0000000000000000e+01 1.0000000000000000e+01
-1.0000000000000000e+01 1.0000000000000000e+01
-1.0000000000000000e+01 1.0000000000000000e+01
ITEM: ENTRIES index c_angles
1 110.17 
2 40.6889 
3 119.791 
4 107.075 
5 89.9017 
6 81.1837 
7 72.4875 
8 105.372 
9 83.4481 
10 154.767 
ITEM: TIMESTEP
27500
ITEM: NUMBER OF ENTRIES
10
ITEM: BOX BOUNDS pp pp pp
-1.0000000000000000e+01 1.0000000000000000e+01
-1.0000000000000000e+01 1.0000000000000000e+01
-1.0000000000000000e+01 1.0000000000000000e+01
ITEM: ENTRIES index c_angles
1 117.152 
2 35.9986 
3 132.55 
4 113.791 
5 93.0219 
6 99.455 
7 72.4717 
8 104.698 
9 90.2105 
10 153.045 
ITEM: TIMESTEP
27600
ITEM: NUMBER OF ENTRIES
10
ITEM: BOX BOUNDS pp pp pp
-1.0000000000000000e+01 1.0000000000000000e+01
-1.0000000000000000e+01 1.0000000000000000e+01
-1.0000000000000000e+01 1.0000000000000000e+01
ITEM: ENTRIES index c_angles
1 122.045 
2 35.8425 
3 154.614 
4 116.495 
5 94.4447 
6 117.146 
7 73.9455 
8 98.3567 
9 97.4245 
10 150.681 
ITEM: TIMESTEP
27700
ITEM: NUMBER OF ENTRIES
10
ITEM: BOX BOUNDS pp pp pp
-1.0000000000000000e+01 1.0000000000000000e+01
-1.0000000000000000e+01 1.0000000000000000e+01
-1.0000000000000000e+01 1.0000000000000000e+01
ITEM: ENTRIES index c_angles
1 131.662 
2 37.1499 
3 173.904 
4 120.733 
5 94.3242 
6 125.907 
7 81.2718 
8 92.6069 
9 105.888 
10 151.784 
ITEM: TIMESTEP
27800
ITEM: NUMBER OF ENTRIES
10
ITEM: BOX BOUNDS pp pp pp
-1.0000000000000000e+01 1.0000000000000000e+01
-1.0000000000000000e+01 1.0000000000000000e+01
-1.0000000000000000e+01 1.0000000000000000e+01
ITEM: ENTRIES index c_angles
1 142.535 
2 38.7528 
3 173.093 
4 123.706 
5 97.4352 
6 117.713 
7 94.1503 
8 90.1027 
9 116.127 
10 149.721 
ITEM: TIMESTEP
27900
ITEM: NUMBER OF ENTRIES
10
ITEM: BOX BOUNDS pp pp pp
-1.0000000000000000e+01 1.0000000000000000e+01
-1.0000000000000000e+01 1.0000000000000000e+01
-1.0000000000000000e+01 1.0000000000000000e+01
ITEM: ENTRIES index c_angles
1 158.05 
2 44.8184 
3 162.399 
4 121.057 
5 106.418 
6 107.062 
7 104.947 
8 88.5951 
9 131.757 
10 136.038 
ITEM: TIMESTEP
28000
ITEM: NUMBER OF ENTRIES
10
ITEM: BOX BOUNDS pp pp pp
-1.0000000000000000e+01 1.0000000000000000e+01
-1.0000000000000000e+01 1.0000000000000000e+01
-1.0000000000000000e+01 1.0000000000000000e+01
ITEM: ENTRIES index c_angles
1 173.585 
2 64.1579 
3 148.66 
4 113.113 
5 120.523 
6 101.799 
7 100.577 
8 88.4964 
9 150.794 
10 116.058 
ITEM: TIMESTEP
28100
ITEM: NUMBER OF ENTRIES
10
ITEM: BOX BOUNDS pp pp pp
-1.0000000000000000e+01 1.0000000000000000e+01
-1.0000000000000000e+01 1.0000000000000000e+01
-1.0000000000000000e+01 1.0000000000000000e+01
ITEM: ENTRIES index c_angles
1 171.169 
2 106.891 
3 83.9067 
4 137.594 
5 137.949 
6 88.6746 
7 92.489 
8 93.6089 
9 169.016 
10 95.9472 
ITEM: TIMESTEP
28200
ITEM: NUMBER OF ENTRIES
10
ITEM: BOX BOUNDS pp pp pp
-1.0000000000000000e+01 1.0000000000000000e+01
-1.0000000000000000e+01 1.0000000000000000e+01
-1.0000000000000000e+01 1.0000000000000000e+01
ITEM: ENTRIES index c_angles
1 160.676 
2 95.4768 
3 94.2835 
4 125.274 
5 147.714 
6 74.0707 
7 84.6323 
8 102.514 
9 158.076 
10 80.6656 
ITEM: TIMESTEP
28300
ITEM: NUMBER OF ENTRIES
10
ITEM: BOX BOUNDS pp pp pp
-1.0000000000000000e+01 1.0000000000000000e+01
-1.0000000000000000e+01 1.0000000000000000e+01
-1.0000000000000000e+01 1.0000000000000000e+01
ITEM: ENTRIES index c_angles
1 154.223 
2 77.4068 
3 102.475 
4 106.177 
5 148.585 
6 67.7285 
7 82.7362 
8 114.478 
9 139.837 
10 74.9704 
ITEM: TIMESTEP
28400
ITEM: NUMBER OF ENTRIES
10
ITEM: BOX BOUNDS pp pp pp
-1.0000000000000000e+01 1.0000000000000000e+01
-1.0000000000000000e+01 1.0000000000000000e+01
-1.0000000000000000e+01 1.0000000000000000e+01
ITEM: ENTRIES index c_angles
1 152.228 
2 57.83 
3 105.679 
4 88.533 
5 148.189 
6 69.8431 
7 82.1756 
8 128.099 
9 121.685 
10 75.4465 
ITEM: TIMESTEP
28500
ITEM: NUMBER OF ENTRIES
10
ITEM: BOX BOUNDS pp pp pp
-1.0000000000000000e+01 1.0000000000000000e+01
-1.0000000000000000e+01 1.0000000000000000e+01
-1.0000000000000000e+01 1.0000000000000000e+01
ITEM: ENTRIES index c_angles
1 147.678 
2 44.165 
3 110.021 
4 75.2436 
5 144.918 
6 77.2109 
7 86.7322 
8 135.454 
9 102.164 
10 79.5591 
ITEM: TIMESTEP
28600
ITEM: NUMBER OF ENTRIES
10
ITEM: BOX BOUNDS pp pp pp
-1.0000000000000000e+01 1.0000000000000000e+01
-1.0000000000000000e+01 1.0000000000000000e+01
-1.0000000000000000e+01 1.0000000000000000e+01
ITEM: ENTRIES index c_angles
1 151.044 
2 36.7605 
3 117.72 
4 67.8757 
5 146.23 
6 87.4042 
7 92.5875 
8 132.651 
9 87.8132 
10 89.8398 
ITEM: TIMESTEP
28700
ITEM: NUMBER OF ENTRIES
10
ITEM: BOX BOUNDS pp pp pp
-1.0000000000000000e+01 1.0000000000000000e+01
-1.0000000000000000e+01 1.0000000000000000e+01
-1.0000000000000000e+01 1.0000000000000000e+01
ITEM: ENTRIES index c_angles
1 159.951 
2 33.3758 
3 126.942 
4 67.9594 
5 150.399 
6 90.5618 
7 98.4594 
8 116.081 
9 75.9391 
10 104.223 
ITEM: TIMESTEP
28800
ITEM: NUMBER OF ENTRIES
10
ITEM: BOX BOUNDS pp pp pp
-1.0000000000000000e+01 1.0000000000000000e+01
-1.0000000000000000e+01 1.0000000000000000e+01
-1.0000000000000000e+01 1.0000000000000000e+01
ITEM: ENTRIES index c_angles
1 170.838 
2 34.0991 
3 136.382 
4 66.9772 
5 158.404 
6 85.708 
7 107.518 
8 95.9236 
9 65.4188 
10 114.482 
ITEM: TIMESTEP
28900
ITEM: NUMBER OF ENTRIES
10
ITEM: BOX BOUNDS pp pp pp
-1.0000000000000000e+01 1.0000000000000000e+01
-1.0000000000000000e+01 1.0000000000000000e+01
-1.0000000000000000e+01 1.0000000000000000e+01
ITEM: ENTRIES index c_angles
1 170.048 
2 36.5048 
3 151.433 
4 66.29 
5 165.566 
6 78.6622 
7 120.173 
8 85.842 
9 56.6929 
10 120.94 
ITEM: TIMESTEP
29000
ITEM: NUMBER OF ENTRIES
10
ITEM: BOX BOUNDS pp pp pp
-1.0000000000000000e+01 1.0000000000000000e+01
-1.0000000000000000e+01 1.0000000000000000e+01
-1.0000000000000000e+01 1.0000000000000000e+01
ITEM: ENTRIES index c_angles
1 165.111 
2 35.7717 
3 168.049 
4 66.8388 
5 155.433 
6 76.4389 
7 124.495 
8 81.8982 
9 49.6009 
10 124.744 
ITEM: TIMESTEP
29100
ITEM: NUMBER OF ENTRIES
10
ITEM: BOX BOUNDS pp pp pp
-1.0000000000000000e+01 1.0000000000000000e+01
-1.0000000000000000e+01 1.0000000000000000e+01
-1.0000000000000000e+01 1.0000000000000000e+01
ITEM: ENTRIES index c_angles
1 168.387 
2 34.7801 
3 151.747 
4 71.4635 
5 75.3446 
6 118.546 
7 134.514 
8 44.7796 
9 80.1523 
10 129.69 
ITEM: TIMESTEP
29200
ITEM: NUMBER OF ENTRIES
10
ITEM: BOX BOUNDS pp pp pp
-1.0000000000000000e+01 1.0000000000000000e+01
-1.0000000000000000e+01 1.0000000000000000e+01
-1.0000000000000000e+01 1.0000000000000000e+01
ITEM: ENTRIES index c_angles
1 172.804 
2 32.5907 
3 141.103 
4 95.9605 
5 73.8055 
6 102.095 
7 111.738 
8 37.4264 
9 84.5261 
10 128.088 
ITEM: TIMESTEP
29300
ITEM: NUMBER OF ENTRIES
10
ITEM: BOX BOUNDS pp pp pp
-1.0000000000000000e+01 1.0000000000000000e+01
-1.0000000000000000e+01 1.0000000000000000e+01
-1.0000000000000000e+01 1.0000000000000000e+01
ITEM: ENTRIES index c_angles
1 173.974 
2 35.9108 
3 112.848 
4 122.441 
5 71.316 
6 87.6833 
7 85.9781 
8 29.6098 
9 95.0094 
10 123.112 
ITEM: TIMESTEP
29400
ITEM: NUMBER OF ENTRIES
10
ITEM: BOX BOUNDS pp pp pp
-1.0000000000000000e+01 1.0000000000000000e+01
-1.0000000000000000e+01 1.0000000000000000e+01
-1.0000000000000000e+01 1.0000000000000000e+01
ITEM: ENTRIES index c_angles
1 159.042 
2 47.0807 
3 75.5333 
4 136.894 
5 66.0555 
6 79.7962 
7 65.1482 
8 19.2432 
9 115.379 
10 122.423 
ITEM: TIMESTEP
29500
ITEM: NUMBER OF ENTRIES
10
ITEM: BOX BOUNDS pp pp pp
-1.0000000000000000e+01 1.0000000000000000e+01
-1.0000000000000000e+01 1.0000000000000000e+01
-1.0000000000000000e+01 1.0000000000000000e+01
ITEM: ENTRIES index c_angles
1 149.416 
2 62.2349 
3 56.0075 
4 138.833 
5 66.5795 
6 74.5898 
7 47.8813 
8 14.7753 
9 140.583 
10 120.017 
ITEM: TIMESTEP
29600
ITEM: NUMBER OF ENTRIES
10
ITEM: BOX BOUNDS pp pp pp
-1.0000000000000000e+01 1.0000000000000000e+01
-1.0000000000000000e+01 1.0000000000000000e+01
-1.0000000000000000e+01 1.0000000000000000e+01
ITEM: ENTRIES index c_angles
1 135.808 
2 78.6641 
3 50.1773 
4 122.38 
5 68.0297 
6 76.0689 
7 35.4447 
8 11.1966 
9 163.202 
10 122.725 
ITEM: TIMESTEP
29700
ITEM: NUMBER OF ENTRIES
10
ITEM: BOX BOUNDS pp pp pp
-1.0000000000000000e+01 1.0000000000000000e+01
-1.0000000000000000e+01 1.0000000000000000e+01
-1.0000000000000000e+01 1.0000000000000000e+01
ITEM: ENTRIES index c_angles
1 134.061 
2 94.1634 
3 49.3066 
4 108.569 
5 64.5897 
6 77.9435 
7 27.2232 
8 14.9501 
9 158.809 
10 130.047 
ITEM: TIMESTEP
29800
ITEM: NUMBER OF ENTRIES
10
ITEM: BOX BOUNDS pp pp pp
-1.0000000000000000e+01 1.0000000000000000e+01
-1.0000000000000000e+01 1.0000000000000000e+01
-1.0000000000000000e+01 1.0000000000000000e+01
ITEM: ENTRIES index c_angles
1 131.382 
2 104.772 
3 50.1089 
4 102.986 
5 57.4605 
6 80.6433 
7 20.3979 
8 18.3456 
9 134.806 
10 140.224 
ITEM: TIMESTEP
29900
ITEM: NUMBER OF ENTRIES
10
ITEM: BOX BOUNDS pp pp pp
-1.0000000000000000e+01 1.0000000000000000e+01
-1.0000000000000000e+01 1.0000000000000000e+01
-1.0000000000000000e+01 1.0000000000000000e+01
ITEM: ENTRIES index c_angles
1 122.552 
2 101.567 
3 55.4071 
4 102.569 
5 55.2209 
6 86.8657 
7 14.9388 
8 20.7564 
9 115.849 
10 148.689 
ITEM: TIMESTEP
30000
ITEM: NUMBER OF ENTRIES
10
ITEM: BOX BOUNDS pp pp pp
-1.0000000000000000e+01 1.0000000000000000e+01
-1.0000000000000000e+01 1.0000000000000000e+01
-1.0000000000000000e+01 1.0000000000000000e+01
ITEM: ENTRIES index c_angles
1 113.216 
2 97.1525 
3 63.4438 
4 101.339 
5 57.0481 
6 93.1687 
7 17.2804 
8 25.5914 
9 98.7139 
10 151.139 
ITEM: TIMESTEP
30100
ITEM: NUMBER OF ENTRIES
10
ITEM: BOX BOUNDS pp pp pp
-1.0000000000000000e+01 1.0000000000000000e+01
-1.0000000000000000e+01 1.0000000000000000e+01
-1.0000000000000000e+01 1.0000000000000000e+01
ITEM: ENTRIES index c_angles
1 102.562 
2 88.0988 
3 102.22 
4 70.0208 
5 63.0065 
6 96.8546 
7 26.4925 
8 28.0689 
9 85.7457 
10 147.95 
ITEM: TIMESTEP
30200
ITEM: NUMBER OF ENTRIES
10
ITEM: BOX BOUNDS pp pp pp
-1.0000000000000000e+01 1.0000000000000000e+01
-1.0000000000000000e+01 1.0000000000000000e+01
-1.0000000000000000e+01 1.0000000000000000e+01
ITEM: ENTRIES index c_angles
1 95.9178 
2 84.3187 
3 101.769 
4 76.1676 
5 73.0055 
6 98.6723 
7 30.8005 
8 33.7506 
9 71.8262 
10 142.367 
ITEM: TIMESTEP
30300
ITEM: NUMBER OF ENTRIES
10
ITEM: BOX BOUNDS pp pp pp
-1.0000000000000000e+01 1.0000000000000000e+01
-1.0000000000000000e+01 1.0000000000000000e+01
-1.0000000000000000e+01 1.0000000000000000e+01
ITEM: ENTRIES index c_angles
1 95.7514 
2 81.3862 
3 101.604 
4 81.8912 
5 82.5161 
6 94.5746 
7 28.4619 
8 42.7545 
9 55.9294 
10 136.738 
ITEM: TIMESTEP
30400
ITEM: NUMBER OF ENTRIES
10
ITEM: BOX BOUNDS pp pp pp
-1.0000000000000000e+01 1.0000000000000000e+01
-1.0000000000000000e+01 1.0000000000000000e+01
-1.0000000000000000e+01 1.0000000000000000e+01
ITEM: ENTRIES index c_angles
1 98.7838 
2 80.8269 
3 107.797 
4 87.9182 
5 94.8616 
6 88.4895 
7 26.7722 
8 54.2211 
9 34.0839 
10 133.005 
ITEM: TIMESTEP
30500
ITEM: NUMBER OF ENTRIES
10
ITEM: BOX BOUNDS pp pp pp
-1.0000000000000000e+01 1.0000000000000000e+01
-1.0000000000000000e+01 1.0000000000000000e+01
-1.0000000000000000e+01 1.0000000000000000e+01
ITEM: ENTRIES index c_angles
1 99.6939 
2 81.6911 
3 119.15 
4 96.5567 
5 104.561 
6 88.0449 
7 26.2782 
8 68.6148 
9 4.37647 
10 134.138 
ITEM: TIMESTEP
30600
ITEM: NUMBER OF ENTRIES
10
ITEM: BOX BOUNDS pp pp pp
-1.0000000000000000e+01 1.0000000000000000e+01
-1.0000000000000000e+01 1.0000000000000000e+01
-1.0000000000000000e+01 1.0000000000000000e+01
ITEM: ENTRIES index c_angles
1 96.7039 
2 84.3586 
3 128.613 
4 108.869 
5 110.209 
6 90.5048 
7 27.5846 
8 84.4549 
9 29.5881 
10 138.187 
ITEM: TIMESTEP
30700
ITEM: NUMBER OF ENTRIES
10
ITEM: BOX BOUNDS pp pp pp
-1.0000000000000000e+01 1.0000000000000000e+01
-1.0000000000000000e+01 1.0000000000000000e+01
-1.0000000000000000e+01 1.0000000000000000e+01
ITEM: ENTRIES index c_angles
1 93.549 
2 90.6986 
3 130.907 
4 119.565 
5 114.055 
6 94.5026 
7 28.5696 
8 103.44 
9 49.6984 
10 136.45 
ITEM: TIMESTEP
30800
ITEM: NUMBER OF ENTRIES
10
ITEM: BOX BOUNDS pp pp pp
-1.0000000000000000e+01 1.0000000000000000e+01
-1.0000000000000000e+01 1.0000000000000000e+01
-1.0000000000000000e+01 1.0000000000000000e+01
ITEM: ENTRIES index c_angles
1 84.4289 
2 99.9544 
3 120.986 
4 129.282 
5 116.118 
6 97.0928 
7 34.3961 
8 120.023 
9 64.1955 
10 130.344 
ITEM: TIMESTEP
30900
ITEM: NUMBER OF ENTRIES
10
ITEM: BOX BOUNDS pp pp pp
-1.0000000000000000e+01 1.0000000000000000e+01
-1.0000000000000000e+01 1.0000000000000000e+01
-1.0000000000000000e+01 1.0000000000000000e+01
ITEM: ENTRIES index c_angles
1 77.9881 
2 103.565 
3 97.1726 
4 135.81 
5 116.613 
6 93.401 
7 43.4038 
8 131.596 
9 71.0448 
10 132.924 
ITEM: TIMESTEP
31000
ITEM: NUMBER OF ENTRIES
10
ITEM: BOX BOUNDS pp pp pp
-1.0000000000000000e+01 1.0000000000000000e+01
-1.0000000000000000e+01 1.0000000000000000e+01
-1.0000000000000000e+01 1.0000000000000000e+01
ITEM: ENTRIES index c_angles
1 70.8517 
2 97.4148 
3 74.2984 
4 134.089 
5 124.279 
6 88.3711 
7 56.9156 
8 141.771 
9 73.9699 
10 131.412 
ITEM: TIMESTEP
31100
ITEM: NUMBER OF ENTRIES
10
ITEM: BOX BOUNDS pp pp pp
-1.0000000000000000e+01 1.0000000000000000e+01
-1.0000000000000000e+01 1.0000000000000000e+01
-1.0000000000000000e+01 1.0000000000000000e+01
ITEM: ENTRIES index c_angles
1 63.8798 
2 94.5783 
3 56.5411 
4 124.791 
5 133.399 
6 87.0239 
7 71.9614 
8 148.096 
9 75.5013 
10 135.269 
ITEM: TIMESTEP
31200
ITEM: NUMBER OF ENTRIES
10
ITEM: BOX BOUNDS pp pp pp
-1.0000000000000000e+01 1.0000000000000000e+01
-1.0000000000000000e+01 1.0000000000000000e+01
-1.0000000000000000e+01 1.0000000000000000e+01
ITEM: ENTRIES index c_angles
1 59.6325 
2 92.886 
3 44.3909 
4 114.353 
5 145.86 
6 87.193 
7 82.3738 
8 145.373 
9 80.8576 
10 148.513 
ITEM: TIMESTEP
31300
ITEM: NUMBER OF ENTRIES
10
ITEM: BOX BOUNDS pp pp pp
-1.0000000000000000e+01 1.0000000000000000e+01
-1.0000000000000000e+01 1.0000000000000000e+01
-1.0000000000000000e+01 1.0000000000000000e+01
ITEM: ENTRIES index c_angles
1 58.2681 
2 87.0261 
3 34.457 
4 97.1607 
5 166.406 
6 85.6935 
7 71.2587 
8 140.232 
9 89.5307 
10 154.197 
ITEM: TIMESTEP
31400
ITEM: NUMBER OF ENTRIES
10
ITEM: BOX BOUNDS pp pp pp
-1.0000000000000000e+01 1.0000000000000000e+01
-1.0000000000000000e+01 1.0000000000000000e+01
-1.0000000000000000e+01 1.0000000000000000e+01
ITEM: ENTRIES index c_angles
1 58.7902 
2 82.7646 
3 28.8245 
4 71.2443 
5 165.608 
6 70.4029 
7 57.3723 
8 136.186 
9 104.302 
10 151.365 
ITEM: TIMESTEP
31500
ITEM: NUMBER OF ENTRIES
10
ITEM: BOX BOUNDS pp pp pp
-1.0000000000000000e+01 1.0000000000000000e+01
-1.0000000000000000e+01 1.0000000000000000e+01
-1.0000000000000000e+01 1.0000000000000000e+01
ITEM: ENTRIES index c_angles
1 60.9985 
2 70.2769 
3 33.1824 
4 47.4118 
5 137.383 
6 56.0667 
7 46.2007 
8 130.534 
9 122.287 
10 149.298 
ITEM: TIMESTEP
31600
ITEM: NUMBER OF ENTRIES
10
ITEM: BOX BOUNDS pp pp pp
-1.0000000000000000e+01 1.0000000000000000e+01
-1.0000000000000000e+01 1.0000000000000000e+01
-1.0000000000000000e+01 1.0000000000000000e+01
ITEM: ENTRIES index c_angles
1 64.2632 
2 56.1161 
3 50.0419 
4 29.5938 
5 114.245 
6 47.775 
7 43.6903 
8 127.698 
9 135.466 
10 149.224 
ITEM: TIMESTEP
31700
ITEM: NUMBER OF ENTRIES
10
ITEM: BOX BOUNDS pp pp pp
-1.0000000000000000e+01 1.0000000000000000e+01
-1.0000000000000000e+01 1.0000000000000000e+01
-1.0000000000000000e+01 1.0000000000000000e+01
ITEM: ENTRIES index c_angles
1 68.087 
2 49.9054 
3 63.9366 
4 15.2053 
5 99.5449 
6 40.8319 
7 43.7136 
8 125.816 
9 139.941 
10 150.586 
ITEM: TIMESTEP
31800
ITEM: NUMBER OF ENTRIES
10
ITEM: BOX BOUNDS pp pp pp
-1.0000000000000000e+01 1.0000000000000000e+01
-1.0000000000000000e+01 1.0000000000000000e+01
-1.0000000000000000e+01 1.0000000000000000e+01
ITEM: ENTRIES index c_angles
1 74.781 
2 52.038 
3 55.2043 
4 4.72321 
5 91.2138 
6 34.3295 
7 47.7268 
8 100.956 
9 142.984 
10 152.702 
ITEM: TIMESTEP
31900
ITEM: NUMBER OF ENTRIES
10
ITEM: BOX BOUNDS pp pp pp
-1.0000000000000000e+01 1.0000000000000000e+01
-1.0000000000000000e+01 1.0000000000000000e+01
-1.0000000000000000e+01 1.0000000000000000e+01
ITEM: ENTRIES index c_angles
1 74.4508 
2 58.9503 
3 30.3593 
4 15.6477 
5 90.6923 
6 25.8365 
7 56.0863 
8 71.0248 
9 143.595 
10 157.96 
ITEM: TIMESTEP
32000
ITEM: NUMBER OF ENTRIES
10
ITEM: BOX BOUNDS pp pp pp
-1.0000000000000000e+01 1.0000000000000000e+01
-1.0000000000000000e+01 1.0000000000000000e+01
-1.0000000000000000e+01 1.0000000000000000e+01
ITEM: ENTRIES index c_angles
1 75.6702 
2 61.7011 
3 15.5849 
4 33.8785 
5 94.0249 
6 18.21 
7 60.0805 
8 51.9385 
9 143.185 
10 169.268 
ITEM: TIMESTEP
32100
ITEM: NUMBER OF ENTRIES
10
ITEM: BOX BOUNDS pp pp pp
-1.0000000000000000e+01 1.0000000000000000e+01
-1.0000000000000000e+01 1.0000000000000000e+01
-1.0000000000000000e+01 1.0000000000000000e+01
ITEM: ENTRIES index c_angles
1 75.6491 
2 58.1927 
3 14.1262 
4 57.5032 
5 98.5854 
6 21.1368 
7 59.843 
8 38.2553 
9 141.047 
10 174.134 
ITEM: TIMESTEP
32200
ITEM: NUMBER OF ENTRIES
10
ITEM: BOX BOUNDS pp pp pp
-1.0000000000000000e+01 1.0000000000000000e+01
-1.0000000000000000e+01 1.0000000000000000e+01
-1.0000000000000000e+01 1.0000000000000000e+01
ITEM: ENTRIES index c_angles
1 76.9832 
2 58.8923 
3 15.4657 
4 77.6958 
5 104.902 
6 30.0922 
7 61.595 
8 25.1349 
9 139.369 
10 156.797 
ITEM: TIMESTEP
32300
ITEM: NUMBER OF ENTRIES
10
ITEM: BOX BOUNDS pp pp pp
-1.0000000000000000e+01 1.0000000000000000e+01
-1.0000000000000000e+01 1.0000000000000000e+01
-1.0000000000000000e+01 1.0000000000000000e+01
ITEM: ENTRIES index c_angles
1 78.6396 
2 65.9377 
3 17.7238 
4 89.0494 
5 116.27 
6 37.1739 
7 63.1723 
8 19.3763 
9 143.635 
10 140.451 
ITEM: TIMESTEP
32400
ITEM: NUMBER OF ENTRIES
10
ITEM: BOX BOUNDS pp pp pp
-1.0000000000000000e+01 1.0000000000000000e+01
-1.0000000000000000e+01 1.0000000000000000e+01
-1.0000000000000000e+01 1.0000000000000000e+01
ITEM: ENTRIES index c_angles
1 85.6275 
2 78.3313 
3 19.0566 
4 93.1841 
5 132.351 
6 41.2415 
7 60.4845 
8 22.1375 
9 145.889 
10 130.036 
ITEM: TIMESTEP
32500
ITEM: NUMBER OF ENTRIES
10
ITEM: BOX BOUNDS pp pp pp
-1.0000000000000000e+01 1.0000000000000000e+01
-1.0000000000000000e+01 1.0000000000000000e+01
-1.0000000000000000e+01 1.0000000000000000e+01
ITEM: ENTRIES index c_angles
1 94.6686 
2 91.3345 
3 20.7912 
4 95.7953 
5 156.4 
6 48.4241 
7 52.5084 
8 30.3927 
9 148.775 
10 124.303 
ITEM: TIMESTEP
32600
ITEM: NUMBER OF ENTRIES
10
ITEM: BOX BOUNDS pp pp pp
-1.0000000000000000e+01 1.0000000000000000e+01
-1.0000000000000000e+01 1.0000000000000000e+01
-1.0000000000000000e+01 1.0000000000000000e+01
ITEM: ENTRIES index c_angles
1 106.255 
2 105.474 
3 27.4808 
4 100.656 
5 168.002 
6 57.0031 
7 45.8381 
8 44.0795 
9 148.784 
10 120.128 
ITEM: TIMESTEP
32700
ITEM: NUMBER OF ENTRIES
10
ITEM: BOX BOUNDS pp pp pp
-1.0000000000000000e+01 1.0000000000000000e+01
-1.0000000000000000e+01 1.0000000000000000e+01
-1.0000000000000000e+01 1.0000000000000000e+01
ITEM: ENTRIES index c_angles
1 119.258 
2 120.862 
3 44.0431 
4 108.833 
5 130.687 
6 65.7199 
7 37.5892 
8 57.3222 
9 147.014 
10 110.034 
ITEM: TIMESTEP
32800
ITEM: NUMBER OF ENTRIES
10
ITEM: BOX BOUNDS pp pp pp
-1.0000000000000000e+01 1.0000000000000000e+01
-1.0000000000000000e+01 1.0000000000000000e+01
-1.0000000000000000e+01 1.0000000000000000e+01
ITEM: ENTRIES index c_angles
1 129.693 
2 136.134 
3 57.0129 
4 113.38 
5 93.3157 
6 69.1765 
7 34.3754 
8 66.5206 
9 142.247 
10 96.0413 
ITEM: TIMESTEP
32900
ITEM: NUMBER OF ENTRIES
10
ITEM: BOX BOUNDS pp pp pp
-1.0000000000000000e+01 1.0000000000000000e+01
-1.0000000000000000e+01 1.0000000000000000e+01
-1.0000000000000000e+01 1.0000000000000000e+01
ITEM: ENTRIES index c_angles
1 137.49 
2 152.399 
3 58.758 
4 122.716 
5 68.1688 
6 71.4715 
7 35.0271 
8 71.4515 
9 140.767 
10 84.7979 
ITEM: TIMESTEP
33000
ITEM: NUMBER OF ENTRIES
10
ITEM: BOX BOUNDS pp pp pp
-1.0000000000000000e+01 1.0000000000000000e+01
-1.0000000000000000e+01 1.0000000000000000e+01
-1.0000000000000000e+01 1.0000000000000000e+01
ITEM: ENTRIES index c_angles
1 138.88 
2 154.124 
3 49.2947 
4 130.743 
5 55.0094 
6 76.8953 
7 37.8828 
8 71.3075 
9 142.804 
10 75.0728 
ITEM: TIMESTEP
33100
ITEM: NUMBER OF ENTRIES
10
ITEM: BOX BOUNDS pp pp pp
-1.0000000000000000e+01 1.0000000000000000e+01
-1.0000000000000000e+01 1.0000000000000000e+01
-1.0000000000000000e+01 1.0000000000000000e+01
ITEM: ENTRIES index c_angles
1 142.639 
2 142.963 
3 41.9584 
4 73.8632 
5 129.511 
6 44.6286 
7 84.2031 
8 44.8829 
9 73.2561 
10 136.969 
ITEM: TIMESTEP
33200
ITEM: NUMBER OF ENTRIES
10
ITEM: BOX BOUNDS pp pp pp
-1.0000000000000000e+01 1.0000000000000000e+01
-1.0000000000000000e+01 1.0000000000000000e+01
-1.0000000000000000e+01 1.0000000000000000e+01
ITEM: ENTRIES index c_angles
1 147.548 
2 125.941 
3 38.7409 
4 76.5063 
5 122.491 
6 36.6984 
7 92.7881 
8 54.5821 
9 75.2225 
10 127.579 
ITEM: TIMESTEP
33300
ITEM: NUMBER OF ENTRIES
10
ITEM: BOX BOUNDS pp pp pp
-1.0000000000000000e+01 1.0000000000000000e+01
-1.0000000000000000e+01 1.0000000000000000e+01
-1.0000000000000000e+01 1.0000000000000000e+01
ITEM: ENTRIES index c_angles
1 148.781 
2 114.408 
3 41.0559 
4 81.7094 
5 109.067 
6 30.8643 
7 105.673 
8 65.3551 
9 75.7331 
10 120.805 
ITEM: TIMESTEP
33400
ITEM: NUMBER OF ENTRIES
10
ITEM: BOX BOUNDS pp pp pp
-1.0000000000000000e+01 1.0000000000000000e+01
-1.0000000000000000e+01 1.0000000000000000e+01
-1.0000000000000000e+01 1.0000000000000000e+01
ITEM: ENTRIES index c_angles
1 152.955 
2 107.856 
3 44.019 
4 90.845 
5 100.832 
6 30.631 
7 113.821 
8 77.6789 
9 77.4656 
10 123.107 
ITEM: TIMESTEP
33500
ITEM: NUMBER OF ENTRIES
10
ITEM: BOX BOUNDS pp pp pp
-1.0000000000000000e+01 1.0000000000000000e+01
-1.0000000000000000e+01 1.0000000000000000e+01
-1.0000000000000000e+01 1.0000000000000000e+01
ITEM: ENTRIES index c_angles
1 151.047 
2 103.609 
3 49.7983 
4 105.494 
5 97.1946 
6 33.2735 
7 121.927 
8 90.7489 
9 83.037 
10 138.547 
ITEM: TIMESTEP
33600
ITEM: NUMBER OF ENTRIES
10
ITEM: BOX BOUNDS pp pp pp
-1.0000000000000000e+01 1.0000000000000000e+01
-1.0000000000000000e+01 1.0000000000000000e+01
-1.0000000000000000e+01 1.0000000000000000e+01
ITEM: ENTRIES index c_angles
1 151.513 
2 108.732 
3 57.2041 
4 121.778 
5 98.4336 
6 36.8152 
7 126.328 
8 98.7509 
9 90.7579 
10 166.212 
ITEM: TIMESTEP
33700
ITEM: NUMBER OF ENTRIES
10
ITEM: BOX BOUNDS pp pp pp
-1.0000000000000000e+01 1.0000000000000000e+01
-1.0000000000000000e+01 1.0000000000000000e+01
-1.0000000000000000e+01 1.0000000000000000e+01
ITEM: ENTRIES index c_angles
1 157.173 
2 119.092 
3 63.7009 
4 135.025 
5 99.2583 
6 44.4878 
7 133.511 
8 99.4747 
9 93.8151 
10 161.684 
ITEM: TIMESTEP
33800
ITEM: NUMBER OF ENTRIES
10
ITEM: BOX BOUNDS pp pp pp
-1.0000000000000000e+01 1.0000000000000000e+01
-1.0000000000000000e+01 1.0000000000000000e+01
-1.0000000000000000e+01 1.0000000000000000e+01
ITEM: ENTRIES index c_angles
1 167.791 
2 131.667 
3 69.3017 
4 150.382 
5 97.9883 
6 57.8641 
7 141.024 
8 98.3908 
9 89.7839 
10 137.584 
ITEM: TIMESTEP
33900
ITEM: NUMBER OF ENTRIES
10
ITEM: BOX BOUNDS pp pp pp
-1.0000000000000000e+01 1.0000000000000000e+01
-1.0000000000000000e+01 1.0000000000000000e+01
-1.0000000000000000e+01 1.0000000000000000e+01
ITEM: ENTRIES index c_angles
1 172.388 
2 140.908 
3 72.4946 
4 151.81 
5 95.9769 
6 66.7175 
7 143.541 
8 91.8894 
9 92.2465 
10 121.274 
ITEM: TIMESTEP
34000
ITEM: NUMBER OF ENTRIES
10
ITEM: BOX BOUNDS pp pp pp
-1.0000000000000000e+01 1.0000000000000000e+01
-1.0000000000000000e+01 1.0000000000000000e+01
-1.0000000000000000e+01 1.0000000000000000e+01
ITEM: ENTRIES index c_angles
1 153.372 
2 147.339 
3 69.74 
4 142.354 
5 105.026 
6 68.6321 
7 147.279 
8 83.1345 
9 99.2306 
10 108.337 
ITEM: TIMESTEP
34100
ITEM: NUMBER OF ENTRIES
10
ITEM: BOX BOUNDS pp pp pp
-1.0000000000000000e+01 1.0000000000000000e+01
-1.0000000000000000e+01 1.0000000000000000e+01
-1.0000000000000000e+01 1.0000000000000000e+01
ITEM: ENTRIES index c_angles
1 139.538 
2 61.2213 
3 114.18 
4 139.977 
5 69.9926 
6 146.423 
7 74.2797 
8 113.337 
9 104.21 
10 141.632 
ITEM: TIMESTEP
34200
ITEM: NUMBER OF ENTRIES
10
ITEM: BOX BOUNDS pp pp pp
-1.0000000000000000e+01 1.0000000000000000e+01
-1.0000000000000000e+01 1.0000000000000000e+01
-1.0000000000000000e+01 1.0000000000000000e+01
ITEM: ENTRIES index c_angles
1 133.643 
2 56.0307 
3 125.209 
4 134.46 
5 66.5352 
6 138.951 
7 69.2665 
8 128.182 
9 103.148 
10 141.25 
ITEM: TIMESTEP
34300
ITEM: NUMBER OF ENTRIES
10
ITEM: BOX BOUNDS pp pp pp
-1.0000000000000000e+01 1.0000000000000000e+01
-1.0000000000000000e+01 1.0000000000000000e+01
-1.0000000000000000e+01 1.0000000000000000e+01
ITEM: ENTRIES index c_angles
1 132.668 
2 51.5898 
3 129.156 
4 128.986 
5 63.8703 
6 131.216 
7 65.7658 
8 137.664 
9 105.436 
10 140.756 
ITEM: TIMESTEP
34400
ITEM: NUMBER OF ENTRIES
10
ITEM: BOX BOUNDS pp pp pp
-1.0000000000000000e+01 1.0000000000000000e+01
-1.0000000000000000e+01 1.0000000000000000e+01
-1.0000000000000000e+01 1.0000000000000000e+01
ITEM: ENTRIES index c_angles
1 129.69 
2 51.3603 
3 126.594 
4 127.962 
5 62.3106 
6 129.063 
7 62.4398 
8 139.717 
9 114.615 
10 138.931 
ITEM: TIMESTEP
34500
ITEM: NUMBER OF ENTRIES
10
ITEM: BOX BOUNDS pp pp pp
-1.0000000000000000e+01 1.0000000000000000e+01
-1.0000000000000000e+01 1.0000000000000000e+01
-1.0000000000000000e+01 1.0000000000000000e+01
ITEM: ENTRIES index c_angles
1 127.32 
2 54.3913 
3 123.52 
4 130.5 
5 62.6372 
6 134.413 
7 67.8622 
8 135.049 
9 124.457 
10 135.178 
ITEM: TIMESTEP
34600
ITEM: NUMBER OF ENTRIES
10
ITEM: BOX BOUNDS pp pp pp
-1.0000000000000000e+01 1.0000000000000000e+01
-1.0000000000000000e+01 1.0000000000000000e+01
-1.0000000000000000e+01 1.0000000000000000e+01
ITEM: ENTRIES index c_angles
1 124.589 
2 52.2114 
3 117.018 
4 137.776 
5 65.277 
6 138.455 
7 80.1612 
8 132.967 
9 120.46 
10 133.129 
ITEM: TIMESTEP
34700
ITEM: NUMBER OF ENTRIES
10
ITEM: BOX BOUNDS pp pp pp
-1.0000000000000000e+01 1.0000000000000000e+01
-1.0000000000000000e+01 1.0000000000000000e+01
-1.0000000000000000e+01 1.0000000000000000e+01
ITEM: ENTRIES index c_angles
1 123.259 
2 48.5541 
3 111.139 
4 144.322 
5 69.4183 
6 143.995 
7 92.2846 
8 131.752 
9 103.306 
10 131.461 
ITEM: TIMESTEP
34800
ITEM: NUMBER OF ENTRIES
10
ITEM: BOX BOUNDS pp pp pp
-1.0000000000000000e+01 1.0000000000000000e+01
-1.0000000000000000e+01 1.0000000000000000e+01
-1.0000000000000000e+01 1.0000000000000000e+01
ITEM: ENTRIES index c_angles
1 124.691 
2 46.0952 
3 112.269 
4 138.763 
5 66.3713 
6 140.61 
7 99.0282 
8 129.166 
9 82.5658 
10 133.022 
ITEM: TIMESTEP
34900
ITEM: NUMBER OF ENTRIES
10
ITEM: BOX BOUNDS pp pp pp
-1.0000000000000000e+01 1.0000000000000000e+01
-1.0000000000000000e+01 1.0000000000000000e+01
-1.0000000000000000e+01 1.0000000000000000e+01
ITEM: ENTRIES index c_angles
1 128.098 
2 48.3022 
3 124.898 
4 129.786 
5 63.7838 
6 133.345 
7 92.1802 
8 127.891 
9 67.098 
10 126.633 
ITEM: TIMESTEP
35000
ITEM: NUMBER OF ENTRIES
10
ITEM: BOX BOUNDS pp pp pp
-1.0000000000000000e+01 1.0000000000000000e+01
-1.0000000000000000e+01 1.0000000000000000e+01
-1.0000000000000000e+01 1.0000000000000000e+01
ITEM: ENTRIES index c_angles
1 134.998 
2 53.6086 
3 153.336 
4 122.833 
5 59.3975 
6 128.879 
7 78.0588 
8 120.399 
9 60.8386 
10 122.459 
ITEM: TIMESTEP
35100
ITEM: NUMBER OF ENTRIES
10
ITEM: BOX BOUNDS pp pp pp
-1.0000000000000000e+01 1.0000000000000000e+01
-1.0000000000000000e+01 1.0000000000000000e+01
-1.0000000000000000e+01 1.0000000000000000e+01
ITEM: ENTRIES index c_angles
1 139.25 
2 62.8121 
3 147.301 
4 121.034 
5 56.0958 
6 122.057 
7 70.8864 
8 118.225 
9 59.9289 
10 118.415 
ITEM: TIMESTEP
35200
ITEM: NUMBER OF ENTRIES
10
ITEM: BOX BOUNDS pp pp pp
-1.0000000000000000e+01 1.0000000000000000e+01
-1.0000000000000000e+01 1.0000000000000000e+01
-1.0000000000000000e+01 1.0000000000000000e+01
ITEM: ENTRIES index c_angles
1 139.123 
2 96.1723 
3 121.235 
4 75.1764 
5 54.3018 
6 117.684 
7 69.8173 
8 111.454 
9 67.4341 
10 117.838 
ITEM: TIMESTEP
35300
ITEM: NUMBER OF ENTRIES
10
ITEM: BOX BOUNDS pp pp pp
-1.0000000000000000e+01 1.0000000000000000e+01
-1.0000000000000000e+01 1.0000000000000000e+01
-1.0000000000000000e+01 1.0000000000000000e+01
ITEM: ENTRIES index c_angles
1 140.216 
2 61.177 
3 120.287 
4 97.7824 
5 56.3265 
6 118.046 
7 71.5264 
8 110.679 
9 75.9085 
10 115.804 
ITEM: TIMESTEP
35400
ITEM: NUMBER OF ENTRIES
10
ITEM: BOX BOUNDS pp pp pp
-1.0000000000000000e+01 1.0000000000000000e+01
-1.0000000000000000e+01 1.0000000000000000e+01
-1.0000000000000000e+01 1.0000000000000000e+01
ITEM: ENTRIES index c_angles
1 144.81 
2 39.0908 
3 126.709 
4 125.146 
5 56.6849 
6 120.347 
7 77.5108 
8 107.335 
9 76.268 
10 108.083 
ITEM: TIMESTEP
35500
ITEM: NUMBER OF ENTRIES
10
ITEM: BOX BOUNDS pp pp pp
-1.0000000000000000e+01 1.0000000000000000e+01
-1.0000000000000000e+01 1.0000000000000000e+01
-1.0000000000000000e+01 1.0000000000000000e+01
ITEM: ENTRIES index c_angles
1 151.785 
2 21.828 
3 137.338 
4 154.974 
5 59.0363 
6 120.29 
7 90.2524 
8 103.552 
9 74.8341 
10 103.007 
ITEM: TIMESTEP
35600
ITEM: NUMBER OF ENTRIES
10
ITEM: BOX BOUNDS pp pp pp
-1.0000000000000000e+01 1.0000000000000000e+01
-1.0000000000000000e+01 1.0000000000000000e+01
-1.0000000000000000e+01 1.0000000000000000e+01
ITEM: ENTRIES index c_angles
1 161.163 
2 15.0748 
3 157.292 
4 151.308 
5 59.3142 
6 114.622 
7 111.863 
8 99.4589 
9 70.3526 
10 99.324 
ITEM: TIMESTEP
35700
ITEM: NUMBER OF ENTRIES
10
ITEM: BOX BOUNDS pp pp pp
-1.0000000000000000e+01 1.0000000000000000e+01
-1.0000000000000000e+01 1.0000000000000000e+01
-1.0000000000000000e+01 1.0000000000000000e+01
ITEM: ENTRIES index c_angles
1 157.832 
2 12.3248 
3 170.572 
4 108.07 
5 57.1703 
6 103.178 
7 156.769 
8 102.128 
9 72.9639 
10 95.3492 
ITEM: TIMESTEP
35800
ITEM: NUMBER OF ENTRIES
10
ITEM: BOX BOUNDS pp pp pp
-1.0000000000000000e+01 1.0000000000000000e+01
-1.0000000000000000e+01 1.0000000000000000e+01
-1.0000000000000000e+01 1.0000000000000000e+01
ITEM: ENTRIES index c_angles
1 146.455 
2 9.79937 
3 156.332 
4 72.74 
5 54.3627 
6 92.6461 
7 142.357 
8 112.616 
9 79.6077 
10 84.0211 
ITEM: TIMESTEP
35900
ITEM: NUMBER OF ENTRIES
10
ITEM: BOX BOUNDS pp pp pp
-1.0000000000000000e+01 1.0000000000000000e+01
-1.0000000000000000e+01 1.0000000000000000e+01
-1.0000000000000000e+01 1.0000000000000000e+01
ITEM: ENTRIES index c_angles
1 137.015 
2 15.8139 
3 156.091 
4 49.5409 
5 51.4264 
6 80.533 
7 83.9489 
8 123.213 
9 90.9669 
10 71.4057 
ITEM: TIMESTEP
36000
ITEM: NUMBER OF ENTRIES
10
ITEM: BOX BOUNDS pp pp pp
-1.0000000000000000e+01 1.0000000000000000e+01
-1.0000000000000000e+01 1.0000000000000000e+01
-1.0000000000000000e+01 1.0000000000000000e+01
ITEM: ENTRIES index c_angles
1 131.27 
2 27.4911 
3 159.824 
4 35.949 
5 48.0068 
6 60.4946 
7 45.2918 
8 132.39 
9 103.319 
10 59.4982 
ITEM: TIMESTEP
36100
ITEM: NUMBER OF ENTRIES
10
ITEM: BOX BOUNDS pp pp pp
-1.0000000000000000e+01 1.0000000000000000e+01
-1.0000000000000000e+01 1.0000000000000000e+01
-1.0000000000000000e+01 1.0000000000000000e+01
ITEM: ENTRIES index c_angles
1 128.658 
2 156.299 
3 28.2752 
4 47.0075 
5 42.4264 
6 40.1565 
7 28.7943 
8 138.246 
9 109.658 
10 48.457 
ITEM: TIMESTEP
36200
ITEM: NUMBER OF ENTRIES
10
ITEM: BOX BOUNDS pp pp pp
-1.0000000000000000e+01 1.0000000000000000e+01
-1.0000000000000000e+01 1.0000000000000000e+01
-1.0000000000000000e+01 1.0000000000000000e+01
ITEM: ENTRIES index c_angles
1 130.426 
2 157.055 
3 25.9222 
4 48.9909 
5 28.8456 
6 43.6075 
7 18.9272 
8 137.443 
9 110.635 
10 41.1889 
ITEM: TIMESTEP
36300
ITEM: NUMBER OF ENTRIES
10
ITEM: BOX BOUNDS pp pp pp
-1.0000000000000000e+01 1.0000000000000000e+01
-1.0000000000000000e+01 1.0000000000000000e+01
-1.0000000000000000e+01 1.0000000000000000e+01
ITEM: ENTRIES index c_angles
1 135.073 
2 161.362 
3 26.8195 
4 50.4681 
5 21.961 
6 45.3084 
7 11.699 
8 133.643 
9 111.932 
10 35.977 
ITEM: TIMESTEP
36400
ITEM: NUMBER OF ENTRIES
10
ITEM: BOX BOUNDS pp pp pp
-1.0000000000000000e+01 1.0000000000000000e+01
-1.0000000000000000e+01 1.0000000000000000e+01
-1.0000000000000000e+01 1.0000000000000000e+01
ITEM: ENTRIES index c_angles
1 143.058 
2 166.846 
3 30.7875 
4 54.6334 
5 22.3946 
6 49.5993 
7 4.45041 
8 131.117 
9 118.338 
10 31.9553 
ITEM: TIMESTEP
36500
ITEM: NUMBER OF ENTRIES
10
ITEM: BOX BOUNDS pp pp pp
-1.0000000000000000e+01 1.0000000000000000e+01
-1.0000000000000000e+01 1.0000000000000000e+01
-1.0000000000000000e+01 1.0000000000000000e+01
ITEM: ENTRIES index c_angles
1 148.041 
2 171.058 
3 35.5038 
4 56.3039 
5 27.8262 
6 55.2653 
7 6.92637 
8 130.08 
9 129.688 
10 27.7033 
ITEM: TIMESTEP
36600
ITEM: NUMBER OF ENTRIES
10
ITEM: BOX BOUNDS pp pp pp
-1.0000000000000000e+01 1.0000000000000000e+01
-1.0000000000000000e+01 1.0000000000000000e+01
-1.0000000000000000e+01 1.0000000000000000e+01
ITEM: ENTRIES index c_angles
1 143.735 
2 172.864 
3 40.6228 
4 53.9919 
5 37.6459 
6 71.2559 
7 20.8616 
8 127.678 
9 137.347 
10 23.8563 
ITEM: TIMESTEP
36700
ITEM: NUMBER OF ENTRIES
10
ITEM: BOX BOUNDS pp pp pp
-1.0000000000000000e+01 1.0000000000000000e+01
-1.0000000000000000e+01 1.0000000000000000e+01
-1.0000000000000000e+01 1.0000000000000000e+01
ITEM: ENTRIES index c_angles
1 135.148 
2 178.48 
3 41.2343 
4 58.6156 
5 49.975 
6 101.668 
7 33.8618 
8 126.741 
9 140.406 
10 24.5678 
ITEM: TIMESTEP
36800
ITEM: NUMBER OF ENTRIES
10
ITEM: BOX BOUNDS pp pp pp
-1.0000000000000000e+01 1.0000000000000000e+01
-1.0000000000000000e+01 1.0000000000000000e+01
-1.0000000000000000e+01 1.0000000000000000e+01
ITEM: ENTRIES index c_angles
1 121.368 
2 173.804 
3 45.0881 
4 69.6107 
5 63.9931 
6 132.083 
7 55.1633 
8 126.309 
9 144.802 
10 28.5818 
ITEM: TIMESTEP
36900
ITEM: NUMBER OF ENTRIES
10
ITEM: BOX BOUNDS pp pp pp
-1.0000000000000000e+01 1.0000000000000000e+01
-1.0000000000000000e+01 1.0000000000000000e+01
-1.0000000000000000e+01 1.0000000000000000e+01
ITEM: ENTRIES index c_angles
1 110.195 
2 161.194 
3 47.4402 
4 81.1654 
5 75.5472 
6 139.781 
7 62.2729 
8 123.915 
9 144.13 
10 27.8397 
ITEM: TIMESTEP
37000
ITEM: NUMBER OF ENTRIES
10
ITEM: BOX BOUNDS pp pp pp
-1.0000000000000000e+01 1.0000000000000000e+01
-1.0000000000000000e+01 1.0000000000000000e+01
-1.0000000000000000e+01 1.0000000000000000e+01
ITEM: ENTRIES index c_angles
1 104.772 
2 149.637 
3 46.311 
4 85.1379 
5 80.7864 
6 122.119 
7 51.675 
8 124.128 
9 139.53 
10 28.6124 
ITEM: TIMESTEP
37100
ITEM: NUMBER OF ENTRIES
10
ITEM: BOX BOUNDS pp pp pp
-1.0000000000000000e+01 1.0000000000000000e+01
-1.0000000000000000e+01 1.0000000000000000e+01
-1.0000000000000000e+01 1.0000000000000000e+01
ITEM: ENTRIES index c_angles
1 126.692 
2 44.8013 
3 96.4809 
4 84.7043 
5 77.2473 
6 47.3818 
7 128.214 
8 142.912 
9 103.708 
10 23.5976 
ITEM: TIMESTEP
37200
ITEM: NUMBER OF ENTRIES
10
ITEM: BOX BOUNDS pp pp pp
-1.0000000000000000e+01 1.0000000000000000e+01
-1.0000000000000000e+01 1.0000000000000000e+01
-1.0000000000000000e+01 1.0000000000000000e+01
ITEM: ENTRIES index c_angles
1 102.344 
2 44.0606 
3 78.5163 
4 85.3953 
5 69.3758 
6 46.2887 
7 130.518 
8 150.29 
9 108.786 
10 20.8408 
ITEM: TIMESTEP
37300
ITEM: NUMBER OF ENTRIES
10
ITEM: BOX BOUNDS pp pp pp
-1.0000000000000000e+01 1.0000000000000000e+01
-1.0000000000000000e+01 1.0000000000000000e+01
-1.0000000000000000e+01 1.0000000000000000e+01
ITEM: ENTRIES index c_angles
1 81.4988 
2 46.8133 
3 67.2054 
4 84.4918 
5 64.601 
6 49.3431 
7 136.749 
8 153.18 
9 114.442 
10 20.2803 
ITEM: TIMESTEP
37400
ITEM: NUMBER OF ENTRIES
10
ITEM: BOX BOUNDS pp pp pp
-1.0000000000000000e+01 1.0000000000000000e+01
-1.0000000000000000e+01 1.0000000000000000e+01
-1.0000000000000000e+01 1.0000000000000000e+01
ITEM: ENTRIES index c_angles
1 66.2107 
2 51.8828 
3 56.6145 
4 86.8044 
5 62.2397 
6 53.7664 
7 143.459 
8 159.067 
9 119.707 
10 23.9057 
ITEM: TIMESTEP
37500
ITEM: NUMBER OF ENTRIES
10
ITEM: BOX BOUNDS pp pp pp
-1.0000000000000000e+01 1.0000000000000000e+01
-1.0000000000000000e+01 1.0000000000000000e+01
-1.0000000000000000e+01 1.0000000000000000e+01
ITEM: ENTRIES index c_angles
1 56.8873 
2 54.2541 
3 51.0992 
4 86.6855 
5 66.3845 
6 60.0907 
7 149.038 
8 165.389 
9 122.255 
10 28.4939 
ITEM: TIMESTEP
37600
ITEM: NUMBER OF ENTRIES
10
ITEM: BOX BOUNDS pp pp pp
-1.0000000000000000e+01 1.0000000000000000e+01
-1.0000000000000000e+01 1.0000000000000000e+01
-1.0000000000000000e+01 1.0000000000000000e+01
ITEM: ENTRIES index c_angles
1 50.206 
2 56.6477 
3 45.682 
4 91.5728 
5 77.178 
6 67.4804 
7 151.798 
8 157.877 
9 124.396 
10 31.9116 
ITEM: TIMESTEP
37700
ITEM: NUMBER OF ENTRIES
10
ITEM: BOX BOUNDS pp pp pp
-1.0000000000000000e+01 1.0000000000000000e+01
-1.0000000000000000e+01 1.0000000000000000e+01
-1.0000000000000000e+01 1.0000000000000000e+01
ITEM: ENTRIES index c_angles
1 45.952 
2 59.1945 
3 40.5899 
4 96.7446 
5 96.3408 
6 77.6217 
7 151.875 
8 140.31 
9 128.926 
10 38.3445 
ITEM: TIMESTEP
37800
ITEM: NUMBER OF ENTRIES
10
ITEM: BOX BOUNDS pp pp pp
-1.0000000000000000e+01 1.0000000000000000e+01
-1.0000000000000000e+01 1.0000000000000000e+01
-1.0000000000000000e+01 1.0000000000000000e+01
ITEM: ENTRIES index c_angles
1 45.0699 
2 61.8395 
3 30.4316 
4 104.226 
5 121.419 
6 80.4547 
7 155.734 
8 128.4 
9 128.622 
10 45.8349 
ITEM: TIMESTEP
37900
ITEM: NUMBER OF ENTRIES
10
ITEM: BOX BOUNDS pp pp pp
-1.0000000000000000e+01 1.0000000000000000e+01
-1.0000000000000000e+01 1.0000000000000000e+01
-1.0000000000000000e+01 1.0000000000000000e+01
ITEM: ENTRIES index c_angles
1 51.9808 
2 68.4439 
3 26.3081 
4 110.292 
5 134.719 
6 80.6689 
7 165.628 
8 117.452 
9 120.141 
10 55.3207 
ITEM: TIMESTEP
38000
ITEM: NUMBER OF ENTRIES
10
ITEM: BOX BOUNDS pp pp pp
-1.0000000000000000e+01 1.0000000000000000e+01
-1.0000000000000000e+01 1.0000000000000000e+01
-1.0000000000000000e+01 1.0000000000000000e+01
ITEM: ENTRIES index c_angles
1 72.8171 
2 74.8645 
3 22.3783 
4 101.865 
5 110.662 
6 78.0365 
7 166.319 
8 106.518 
9 109 
10 66.5309 
ITEM: TIMESTEP
38100
ITEM: NUMBER OF ENTRIES
10
ITEM: BOX BOUNDS pp pp pp
-1.0000000000000000e+01 1.0000000000000000e+01
-1.0000000000000000e+01 1.0000000000000000e+01
-1.0000000000000000e+01 1.0000000000000000e+01
ITEM: ENTRIES index c_angles
1 70.3874 
2 32.7077 
3 80.3661 
4 82.716 
5 88.0603 
6 148.018 
7 73.4948 
8 99.6932 
9 97.8761 
10 78.6144 
ITEM: TIMESTEP
38200
ITEM: NUMBER OF ENTRIES
10
ITEM: BOX BOUNDS pp pp pp
-1.0000000000000000e+01 1.0000000000000000e+01
-1.0000000000000000e+01 1.0000000000000000e+01
-1.0000000000000000e+01 1.0000000000000000e+01
ITEM: ENTRIES index c_angles
1 53.813 
2 48.6947 
3 76.0552 
4 62.8418 
5 75.9642 
6 137.051 
7 65.9967 
8 93.3567 
9 80.5165 
10 88.1929 
ITEM: TIMESTEP
38300
ITEM: NUMBER OF ENTRIES
10
ITEM: BOX BOUNDS pp pp pp
-1.0000000000000000e+01 1.0000000000000000e+01
-1.0000000000000000e+01 1.0000000000000000e+01
-1.0000000000000000e+01 1.0000000000000000e+01
ITEM: ENTRIES index c_angles
1 47.095 
2 57.1891 
3 67.0793 
4 50.9193 
5 67.8109 
6 129.485 
7 60.9317 
8 91.8672 
9 69.0628 
10 92.8653 
ITEM: TIMESTEP
38400
ITEM: NUMBER OF ENTRIES
10
ITEM: BOX BOUNDS pp pp pp
-1.0000000000000000e+01 1.0000000000000000e+01
-1.0000000000000000e+01 1.0000000000000000e+01
-1.0000000000000000e+01 1.0000000000000000e+01
ITEM: ENTRIES index c_angles
1 44.1262 
2 60.1823 
3 56.2643 
4 43.3386 
5 60.5426 
6 124.044 
7 59.7184 
8 92.801 
9 68.5925 
10 92.5155 
ITEM: TIMESTEP
38500
ITEM: NUMBER OF ENTRIES
10
ITEM: BOX BOUNDS pp pp pp
-1.0000000000000000e+01 1.0000000000000000e+01
-1.0000000000000000e+01 1.0000000000000000e+01
-1.0000000000000000e+01 1.0000000000000000e+01
ITEM: ENTRIES index c_angles
1 40.8589 
2 63.9205 
3 45.8754 
4 36.5136 
5 56.4615 
6 120.187 
7 59.1147 
8 99.3345 
9 69.4533 
10 92.2137 
ITEM: TIMESTEP
38600
ITEM: NUMBER OF ENTRIES
10
ITEM: BOX BOUNDS pp pp pp
-1.0000000000000000e+01 1.0000000000000000e+01
-1.0000000000000000e+01 1.0000000000000000e+01
-1.0000000000000000e+01 1.0000000000000000e+01
ITEM: ENTRIES index c_angles
1 36.2267 
2 63.5561 
3 38.8409 
4 33.1119 
5 51.9553 
6 118.84 
7 56.8835 
8 102.257 
9 70.8504 
10 93.2369 
ITEM: TIMESTEP
38700
ITEM: NUMBER OF ENTRIES
10
ITEM: BOX BOUNDS pp pp pp
-1.0000000000000000e+01 1.0000000000000000e+01
-1.0000000000000000e+01 1.0000000000000000e+01
-1.0000000000000000e+01 1.0000000000000000e+01
ITEM: ENTRIES index c_angles
1 35.167 
2 60.6941 
3 41.4717 
4 32.5325 
5 48.7784 
6 116.663 
7 50.687 
8 104.876 
9 75.3045 
10 93.7892 
ITEM: TIMESTEP
38800
ITEM: NUMBER OF ENTRIES
10
ITEM: BOX BOUNDS pp pp pp
-1.0000000000000000e+01 1.0000000000000000e+01
-1.0000000000000000e+01 1.0000000000000000e+01
-1.0000000000000000e+01 1.0000000000000000e+01
ITEM: ENTRIES index c_angles
1 36.9344 
2 55.8643 
3 49.9972 
4 31.8444 
5 47.6042 
6 110.224 
7 46.7557 
8 112.211 
9 81.0429 
10 97.4224 
ITEM: TIMESTEP
38900
ITEM: NUMBER OF ENTRIES
10
ITEM: BOX BOUNDS pp pp pp
-1.0000000000000000e+01 1.0000000000000000e+01
-1.0000000000000000e+01 1.0000000000000000e+01
-1.0000000000000000e+01 1.0000000000000000e+01
ITEM: ENTRIES index c_angles
1 46.175 
2 49.6137 
3 62.7621 
4 33.5383 
5 40.3279 
6 100.166 
7 49.4275 
8 113.476 
9 86.7053 
10 101.036 
ITEM: TIMESTEP
39000
ITEM: NUMBER OF ENTRIES
10
ITEM: BOX BOUNDS pp pp pp
-1.0000000000000000e+01 1.0000000000000000e+01
-1.0000000000000000e+01 1.0000000000000000e+01
-1.0000000000000000e+01 1.0000000000000000e+01
ITEM: ENTRIES index c_angles
1 60.5033 
2 48.0508 
3 80.4825 
4 37.8357 
5 31.3507 
6 84.9363 
7 61.3362 
8 113.322 
9 88.2991 
10 104.28 
ITEM: TIMESTEP
39100
ITEM: NUMBER OF ENTRIES
10
ITEM: BOX BOUNDS pp pp pp
-1.0000000000000000e+01 1.0000000000000000e+01
-1.0000000000000000e+01 1.0000000000000000e+01
-1.0000000000000000e+01 1.0000000000000000e+01
ITEM: ENTRIES index c_angles
1 74.6628 
2 26.8695 
3 51.086 
4 95.8091 
5 71.3349 
6 47.2745 
7 72.0227 
8 115.316 
9 86.0897 
10 105.381 
ITEM: TIMESTEP
39200
ITEM: NUMBER OF ENTRIES
10
ITEM: BOX BOUNDS pp pp pp
-1.0000000000000000e+01 1.0000000000000000e+01
-1.0000000000000000e+01 1.0000000000000000e+01
-1.0000000000000000e+01 1.0000000000000000e+01
ITEM: ENTRIES index c_angles
1 92.4475 
2 26.568 
3 56.73 
4 92.6072 
5 80.2029 
6 56.9628 
7 62.8876 
8 117.581 
9 87.4582 
10 120.108 
ITEM: TIMESTEP
39300
ITEM: NUMBER OF ENTRIES
10
ITEM: BOX BOUNDS pp pp pp
-1.0000000000000000e+01 1.0000000000000000e+01
-1.0000000000000000e+01 1.0000000000000000e+01
-1.0000000000000000e+01 1.0000000000000000e+01
ITEM: ENTRIES index c_angles
1 90.2725 
2 29.4897 
3 67.741 
4 75.8205 
5 83.0364 
6 69.8862 
7 59.747 
8 116.548 
9 90.7261 
10 136.293 
ITEM: TIMESTEP
39400
ITEM: NUMBER OF ENTRIES
10
ITEM: BOX BOUNDS pp pp pp
-1.0000000000000000e+01 1.0000000000000000e+01
-1.0000000000000000e+01 1.0000000000000000e+01
-1.0000000000000000e+01 1.0000000000000000e+01
ITEM: ENTRIES index c_angles
1 73.5836 
2 35.4235 
3 73.8811 
4 57.7986 
5 86.0783 
6 80.786 
7 60.52 
8 111.064 
9 100.605 
10 148.604 
ITEM: TIMESTEP
39500
ITEM: NUMBER OF ENTRIES
10
ITEM: BOX BOUNDS pp pp pp
-1.0000000000000000e+01 1.0000000000000000e+01
-1.0000000000000000e+01 1.0000000000000000e+01
-1.0000000000000000e+01 1.0000000000000000e+01
ITEM: ENTRIES index c_angles
1 62.3604 
2 45.7541 
3 69.8784 
4 45.2407 
5 90.7804 
6 91.0911 
7 61.3315 
8 102.08 
9 120.589 
10 152.099 
ITEM: TIMESTEP
39600
ITEM: NUMBER OF ENTRIES
10
ITEM: BOX BOUNDS pp pp pp
-1.0000000000000000e+01 1.0000000000000000e+01
-1.0000000000000000e+01 1.0000000000000000e+01
-1.0000000000000000e+01 1.0000000000000000e+01
ITEM: ENTRIES index c_angles
1 58.784 
2 51.4382 
3 67.6176 
4 40.415 
5 96.7205 
6 99.5352 
7 67.5633 
8 97.0672 
9 139.225 
10 153.928 
ITEM: TIMESTEP
39700
ITEM: NUMBER OF ENTRIES
10
ITEM: BOX BOUNDS pp pp pp
-1.0000000000000000e+01 1.0000000000000000e+01
-1.0000000000000000e+01 1.0000000000000000e+01
-1.0000000000000000e+01 1.0000000000000000e+01
ITEM: ENTRIES index c_angles
1 59.8863 
2 59.212 
3 66.9691 
4 37.8532 
5 103.311 
6 112.592 
7 79.8651 
8 99.757 
9 141.763 
10 157.771 
ITEM: TIMESTEP
39800
ITEM: NUMBER OF ENTRIES
10
ITEM: BOX BOUNDS pp pp pp
-1.0000000000000000e+01 1.0000000000000000e+01
-1.0000000000000000e+01 1.0000000000000000e+01
-1.0000000000000000e+01 1.0000000000000000e+01
ITEM: ENTRIES index c_angles
1 66.3684 
2 67.9444 
3 64.6199 
4 38.5078 
5 113.015 
6 123.76 
7 97.4133 
8 107.441 
9 134.894 
10 165.801 
ITEM: TIMESTEP
39900
ITEM: NUMBER OF ENTRIES
10
ITEM: BOX BOUNDS pp pp pp
-1.0000000000000000e+01 1.0000000000000000e+01
-1.0000000000000000e+01 1.0000000000000000e+01
-1.0000000000000000e+01 1.0000000000000000e+01
ITEM: ENTRIES index c_angles
1 74.5718 
2 78.6471 
3 56.4684 
4 42.011 
5 127.875 
6 127.251 
7 110.687 
8 113.461 
9 132.297 
10 165.391 
ITEM: TIMESTEP
40000
ITEM: NUMBER OF ENTRIES
10
ITEM: BOX BOUNDS pp pp pp
-1.0000000000000000e+01 1.0000000000000000e+01
-1.0000000000000000e+01 1.0000000000000000e+01
-1.0000000000000000e+01 1.0000000000000000e+01
ITEM: ENTRIES index c_angles
1 82.3076 
2 82.1813 
3 49.9504 
4 47.1987 
5 139.651 
6 131.338 
7 111.732 
8 115.162 
9 133.326 
10 152.227 
ITEM: TIMESTEP
40100
ITEM: NUMBER OF ENTRIES
10
ITEM: BOX BOUNDS pp pp pp
-1.0000000000000000e+01 1.0000000000000000e+01
-1.0000000000000000e+01 1.0000000000000000e+01
-1.0000000000000000e+01 1.0000000000000000e+01
ITEM: ENTRIES index c_angles
1 85.8011 
2 79.1275 
3 44.6156 
4 52.2789 
5 145.113 
6 139.581 
7 109.289 
8 109.96 
9 137.298 
10 141.939 
ITEM: TIMESTEP
40200
ITEM: NUMBER OF ENTRIES
10
ITEM: BOX BOUNDS pp pp pp
-1.0000000000000000e+01 1.0000000000000000e+01
-1.0000000000000000e+01 1.0000000000000000e+01
-1.0000000000000000e+01 1.0000000000000000e+01
ITEM: ENTRIES index c_angles
1 55.0613 
2 74.0086 
3 87.6643 
4 47.4223 
5 156.088 
6 148.533 
7 103.247 
8 105.988 
9 141.601 
10 133.665 
ITEM: TIMESTEP
40300
ITEM: NUMBER OF ENTRIES
10
ITEM: BOX BOUNDS pp pp pp
-1.0000000000000000e+01 1.0000000000000000e+01
-1.0000000000000000e+01 1.0000000000000000e+01
-1.0000000000000000e+01 1.0000000000000000e+01
ITEM: ENTRIES index c_angles
1 57.6209 
2 74.4653 
3 92.8665 
4 53.2493 
5 172.338 
6 154.326 
7 101.612 
8 102.463 
9 148.359 
10 123.202 
ITEM: TIMESTEP
40400
ITEM: NUMBER OF ENTRIES
10
ITEM: BOX BOUNDS pp pp pp
-1.0000000000000000e+01 1.0000000000000000e+01
-1.0000000000000000e+01 1.0000000000000000e+01
-1.0000000000000000e+01 1.0000000000000000e+01
ITEM: ENTRIES index c_angles
1 54.1575 
2 77.2753 
3 97.5393 
4 62.0669 
5 164.444 
6 160.332 
7 105.646 
8 94.5201 
9 154.527 
10 121.788 
ITEM: TIMESTEP
40500
ITEM: NUMBER OF ENTRIES
10
ITEM: BOX BOUNDS pp pp pp
-1.0000000000000000e+01 1.0000000000000000e+01
-1.0000000000000000e+01 1.0000000000000000e+01
-1.0000000000000000e+01 1.0000000000000000e+01
ITEM: ENTRIES index c_angles
1 44.5885 
2 79.433 
3 102.195 
4 61.3878 
5 150.33 
6 165.366 
7 112.24 
8 84.6705 
9 155.905 
10 121.951 
ITEM: TIMESTEP
40600
ITEM: NUMBER OF ENTRIES
10
ITEM: BOX BOUNDS pp pp pp
-1.0000000000000000e+01 1.0000000000000000e+01
-1.0000000000000000e+01 1.0000000000000000e+01
-1.0000000000000000e+01 1.0000000000000000e+01
ITEM: ENTRIES index c_angles
1 38.3424 
2 80.8242 
3 109.631 
4 58.1781 
5 137.585 
6 169.56 
7 118.582 
8 74.4319 
9 152.459 
10 118.843 
ITEM: TIMESTEP
40700
ITEM: NUMBER OF ENTRIES
10
ITEM: BOX BOUNDS pp pp pp
-1.0000000000000000e+01 1.0000000000000000e+01
-1.0000000000000000e+01 1.0000000000000000e+01
-1.0000000000000000e+01 1.0000000000000000e+01
ITEM: ENTRIES index c_angles
1 34.2291 
2 82.9563 
3 112.453 
4 52.3738 
5 132.938 
6 171.016 
7 122.939 
8 64.0223 
9 138.932 
10 120.413 
ITEM: TIMESTEP
40800
ITEM: NUMBER OF ENTRIES
10
ITEM: BOX BOUNDS pp pp pp
-1.0000000000000000e+01 1.0000000000000000e+01
-1.0000000000000000e+01 1.0000000000000000e+01
-1.0000000000000000e+01 1.0000000000000000e+01
ITEM: ENTRIES index c_angles
1 32.3905 
2 85.9569 
3 113.458 
4 52.6262 
5 134.634 
6 169.05 
7 126.758 
8 57.1427 
9 120.819 
10 121.753 
ITEM: TIMESTEP
40900
ITEM: NUMBER OF ENTRIES
10
ITEM: BOX BOUNDS pp pp pp
-1.0000000000000000e+01 1.0000000000000000e+01
-1.0000000000000000e+01 1.0000000000000000e+01
-1.0000000000000000e+01 1.0000000000000000e+01
ITEM: ENTRIES index c_angles
1 32.7208 
2 87.9236 
3 116.651 
4 62.1231 
5 134.956 
6 166.016 
7 127.416 
8 53.0119 
9 104.13 
10 118.553 
ITEM: TIMESTEP
41000
ITEM: NUMBER OF ENTRIES
10
ITEM: BOX BOUNDS pp pp pp
-1.0000000000000000e+01 1.0000000000000000e+01
-1.0000000000000000e+01 1.0000000000000000e+01
-1.0000000000000000e+01 1.0000000000000000e+01
ITEM: ENTRIES index c_angles
1 35.3739 
2 88.6205 
3 125.546 
4 74.614 
5 135.932 
6 164.926 
7 128.701 
8 55.122 
9 88.8869 
10 110.259 
ITEM: TIMESTEP
41100
ITEM: NUMBER OF ENTRIES
10
ITEM: BOX BOUNDS pp pp pp
-1.0000000000000000e+01 1.0000000000000000e+01
-1.0000000000000000e+01 1.0000000000000000e+01
-1.0000000000000000e+01 1.0000000000000000e+01
ITEM: ENTRIES index c_angles
1 38.1793 
2 94.3776 
3 138.174 
4 86.7094 
5 135.078 
6 163.386 
7 124.31 
8 63.1073 
9 79.2801 
10 102.274 
ITEM: TIMESTEP
41200
ITEM: NUMBER OF ENTRIES
10
ITEM: BOX BOUNDS pp pp pp
-1.0000000000000000e+01 1.0000000000000000e+01
-1.0000000000000000e+01 1.0000000000000000e+01
-1.0000000000000000e+01 1.0000000000000000e+01
ITEM: ENTRIES index c_angles
1 38.8686 
2 107.473 
3 140.67 
4 103.93 
5 136.068 
6 163.617 
7 111.805 
8 75.1111 
9 71.6862 
10 86.792 
ITEM: TIMESTEP
41300
ITEM: NUMBER OF ENTRIES
10
ITEM: BOX BOUNDS pp pp pp
-1.0000000000000000e+01 1.0000000000000000e+01
-1.0000000000000000e+01 1.0000000000000000e+01
-1.0000000000000000e+01 1.0000000000000000e+01
ITEM: ENTRIES index c_angles
1 41.3026 
2 125.564 
3 139.053 
4 121.308 
5 140.032 
6 159.923 
7 95.7341 
8 85.322 
9 67.7159 
10 76.6509 
ITEM: TIMESTEP
41400
ITEM: NUMBER OF ENTRIES
10
ITEM: BOX BOUNDS pp pp pp
-1.0000000000000000e+01 1.0000000000000000e+01
-1.0000000000000000e+01 1.0000000000000000e+01
-1.0000000000000000e+01 1.0000000000000000e+01
ITEM: ENTRIES index c_angles
1 43.7221 
2 144.684 
3 132.7 
4 120.867 
5 150.05 
6 149.416 
7 78.2882 
8 92.3115 
9 72.4661 
10 70.1513 
ITEM: TIMESTEP
41500
ITEM: NUMBER OF ENTRIES
10
ITEM: BOX BOUNDS pp pp pp
-1.0000000000000000e+01 1.0000000000000000e+01
-1.0000000000000000e+01 1.0000000000000000e+01
-1.0000000000000000e+01 1.0000000000000000e+01
ITEM: ENTRIES index c_angles
1 44.3856 
2 165.854 
3 128.767 
4 116.191 
5 158.051 
6 134.424 
7 62.6924 
8 91.8498 
9 75.4377 
10 67.7642 
ITEM: TIMESTEP
41600
ITEM: NUMBER OF ENTRIES
10
ITEM: BOX BOUNDS pp pp pp
-1.0000000000000000e+01 1.0000000000000000e+01
-1.0000000000000000e+01 1.0000000000000000e+01
-1.0000000000000000e+01 1.0000000000000000e+01
ITEM: ENTRIES index c_angles
1 44.8058 
2 169.454 
3 126.64 
4 111.53 
5 163.858 
6 115.463 
7 43.2322 
8 89.8257 
9 74.5653 
10 70.9526 
ITEM: TIMESTEP
41700
ITEM: NUMBER OF ENTRIES
10
ITEM: BOX BOUNDS pp pp pp
-1.0000000000000000e+01 1.0000000000000000e+01
-1.0000000000000000e+01 1.0000000000000000e+01
-1.0000000000000000e+01 1.0000000000000000e+01
ITEM: ENTRIES index c_angles
1 42.522 
2 156.185 
3 118.142 
4 104.576 
5 156.381 
6 95.5981 
7 25.0042 
8 86.3413 
9 79.6492 
10 77.7691 
ITEM: TIMESTEP
41800
ITEM: NUMBER OF ENTRIES
10
ITEM: BOX BOUNDS pp pp pp
-1.0000000000000000e+01 1.0000000000000000e+01
-1.0000000000000000e+01 1.0000000000000000e+01
-1.0000000000000000e+01 1.0000000000000000e+01
ITEM: ENTRIES index c_angles
1 39.6837 
2 142.995 
3 108.434 
4 98.8887 
5 134.713 
6 79.0853 
7 16.011 
8 80.7772 
9 94.6611 
10 84.9426 
ITEM: TIMESTEP
41900
ITEM: NUMBER OF ENTRIES
10
ITEM: BOX BOUNDS pp pp pp
-1.0000000000000000e+01 1.0000000000000000e+01
-1.0000000000000000e+01 1.0000000000000000e+01
-1.0000000000000000e+01 1.0000000000000000e+01
ITEM: ENTRIES index c_angles
1 36.2321 
2 132.019 
3 97.289 
4 93.2637 
5 111.681 
6 71.2464 
7 25.1729 
8 75.8053 
9 102.725 
10 100.071 
ITEM: TIMESTEP
42000
ITEM: NUMBER OF ENTRIES
10
ITEM: BOX BOUNDS pp pp pp
-1.0000000000000000e+01 1.0000000000000000e+01
-1.0000000000000000e+01 1.0000000000000000e+01
-1.0000000000000000e+01 1.0000000000000000e+01
ITEM: ENTRIES index c_angles
1 33.6251 
2 123.415 
3 93.5979 
4 87.5279 
5 97.0685 
6 69.4984 
7 36.9707 
8 71.1662 
9 97.0273 
10 113.219 
ITEM: TIMESTEP
42100
ITEM: NUMBER OF ENTRIES
10
ITEM: BOX BOUNDS pp pp pp
-1.0000000000000000e+01 1.0000000000000000e+01
-1.0000000000000000e+01 1.0000000000000000e+01
-1.0000000000000000e+01 1.0000000000000000e+01
ITEM: ENTRIES index c_angles
1 85.2963 
2 114.376 
3 27.1089 
4 92.0517 
5 91.9349 
6 72.4264 
7 50.8155 
8 64.5383 
9 89.1481 
10 121.367 
ITEM: TIMESTEP
42200
ITEM: NUMBER OF ENTRIES
10
ITEM: BOX BOUNDS pp pp pp
-1.0000000000000000e+01 1.0000000000000000e+01
-1.0000000000000000e+01 1.0000000000000000e+01
-1.0000000000000000e+01 1.0000000000000000e+01
ITEM: ENTRIES index c_angles
1 81.8551 
2 112.892 
3 20.2153 
4 93.9361 
5 90.5481 
6 78.1749 
7 68.9692 
8 58.126 
9 83.6944 
10 125.115 
ITEM: TIMESTEP
42300
ITEM: NUMBER OF ENTRIES
10
ITEM: BOX BOUNDS pp pp pp
-1.0000000000000000e+01 1.0000000000000000e+01
-1.0000000000000000e+01 1.0000000000000000e+01
-1.0000000000000000e+01 1.0000000000000000e+01
ITEM: ENTRIES index c_angles
1 77.5128 
2 118.802 
3 17.8873 
4 97.4396 
5 96.0534 
6 85.3531 
7 88.076 
8 47.169 
9 77.7662 
10 127.014 
ITEM: TIMESTEP
42400
ITEM: NUMBER OF ENTRIES
10
ITEM: BOX BOUNDS pp pp pp
-1.0000000000000000e+01 1.0000000000000000e+01
-1.0000000000000000e+01 1.0000000000000000e+01
-1.0000000000000000e+01 1.0000000000000000e+01
ITEM: ENTRIES index c_angles
1 69.8912 
2 118.686 
3 22.7234 
4 97.238 
5 105.269 
6 92.0015 
7 112.07 
8 32.9042 
9 78.5394 
10 123.112 
ITEM: TIMESTEP
42500
ITEM: NUMBER OF ENTRIES
10
ITEM: BOX BOUNDS pp pp pp
-1.0000000000000000e+01 1.0000000000000000e+01
-1.0000000000000000e+01 1.0000000000000000e+01
-1.0000000000000000e+01 1.0000000000000000e+01
ITEM: ENTRIES index c_angles
1 60.0902 
2 120.328 
3 29.1886 
4 98.856 
5 114.635 
6 99.7401 
7 133.59 
8 13.8293 
9 83.509 
10 118.502 
ITEM: TIMESTEP
42600
ITEM: NUMBER OF ENTRIES
10
ITEM: BOX BOUNDS pp pp pp
-1.0000000000000000e+01 1.0000000000000000e+01
-1.0000000000000000e+01 1.0000000000000000e+01
-1.0000000000000000e+01 1.0000000000000000e+01
ITEM: ENTRIES index c_angles
1 66.7286 
2 120.963 
3 32.5834 
4 97.7756 
5 127.607 
6 111.684 
7 141.082 
8 6.18182 
9 91.5072 
10 114.26 
ITEM: TIMESTEP
42700
ITEM: NUMBER OF ENTRIES
10
ITEM: BOX BOUNDS pp pp pp
-1.0000000000000000e+01 1.0000000000000000e+01
-1.0000000000000000e+01 1.0000000000000000e+01
-1.0000000000000000e+01 1.0000000000000000e+01
ITEM: ENTRIES index c_angles
1 90.9949 
2 114.491 
3 32.1546 
4 102.95 
5 144.128 
6 129.305 
7 122.514 
8 16.5685 
9 106.346 
10 110.038 
ITEM: TIMESTEP
42800
ITEM: NUMBER OF ENTRIES
10
ITEM: BOX BOUNDS pp pp pp
-1.0000000000000000e+01 1.0000000000000000e+01
-1.0000000000000000e+01 1.0000000000000000e+01
-1.0000000000000000e+01 1.0000000000000000e+01
ITEM: ENTRIES index c_angles
1 106.552 
2 111.058 
3 32.1255 
4 105.25 
5 156.107 
6 131.741 
7 103.85 
8 26.2107 
9 128.75 
10 113.629 
ITEM: TIMESTEP
42900
ITEM: NUMBER OF ENTRIES
10
ITEM: BOX BOUNDS pp pp pp
-1.0000000000000000e+01 1.0000000000000000e+01
-1.0000000000000000e+01 1.0000000000000000e+01
-1.0000000000000000e+01 1.0000000000000000e+01
ITEM: ENTRIES index c_angles
1 116.078 
2 113.392 
3 31.0035 
4 96.6528 
5 160.98 
6 106.833 
7 95.3704 
8 33.6975 
9 148.105 
10 120.969 
ITEM: TIMESTEP
43000
ITEM: NUMBER OF ENTRIES
10
ITEM: BOX BOUNDS pp pp pp
-1.0000000000000000e+01 1.0000000000000000e+01
-1.0000000000000000e+01 1.0000000000000000e+01
-1.0000000000000000e+01 1.0000000000000000e+01
ITEM: ENTRIES index c_angles
1 117.045 
2 113.42 
3 27.7358 
4 82.2575 
5 156.614 
6 91.271 
7 94.7639 
8 40.5907 
9 167.491 
10 124.79 
ITEM: TIMESTEP
43100
ITEM: NUMBER OF ENTRIES
10
ITEM: BOX BOUNDS pp pp pp
-1.0000000000000000e+01 1.0000000000000000e+01
-1.0000000000000000e+01 1.0000000000000000e+01
-1.0000000000000000e+01 1.0000000000000000e+01
ITEM: ENTRIES index c_angles
1 125.326 
2 115.371 
3 24.0965 
4 69.285 
5 146.399 
6 84.9759 
7 99.1289 
8 46.0906 
9 164.334 
10 131.045 
ITEM: TIMESTEP
43200
ITEM: NUMBER OF ENTRIES
10
ITEM: BOX BOUNDS pp pp pp
-1.0000000000000000e+01 1.0000000000000000e+01
-1.0000000000000000e+01 1.0000000000000000e+01
-1.0000000000000000e+01 1.0000000000000000e+01
ITEM: ENTRIES index c_angles
1 115.703 
2 138.777 
3 62.6123 
4 139.652 
5 19.9798 
6 105.038 
7 80.8002 
8 51.8374 
9 144.897 
10 140.787 
ITEM: TIMESTEP
43300
ITEM: NUMBER OF ENTRIES
10
ITEM: BOX BOUNDS pp pp pp
-1.0000000000000000e+01 1.0000000000000000e+01
-1.0000000000000000e+01 1.0000000000000000e+01
-1.0000000000000000e+01 1.0000000000000000e+01
ITEM: ENTRIES index c_angles
1 117.494 
2 144.263 
3 59.87 
4 139.185 
5 20.1573 
6 111.096 
7 83.0942 
8 50.9681 
9 130.034 
10 148.978 
ITEM: TIMESTEP
43400
ITEM: NUMBER OF ENTRIES
10
ITEM: BOX BOUNDS pp pp pp
-1.0000000000000000e+01 1.0000000000000000e+01
-1.0000000000000000e+01 1.0000000000000000e+01
-1.0000000000000000e+01 1.0000000000000000e+01
ITEM: ENTRIES index c_angles
1 117.062 
2 142.104 
3 61.5846 
4 142.031 
5 22.8152 
6 119.089 
7 91.6292 
8 47.8565 
9 112.884 
10 156.672 
ITEM: TIMESTEP
43500
ITEM: NUMBER OF ENTRIES
10
ITEM: BOX BOUNDS pp pp pp
-1.0000000000000000e+01 1.0000000000000000e+01
-1.0000000000000000e+01 1.0000000000000000e+01
-1.0000000000000000e+01 1.0000000000000000e+01
ITEM: ENTRIES index c_angles
1 118.354 
2 134.211 
3 68.5467 
4 142.967 
5 27.8445 
6 127.856 
7 96.4741 
8 38.4611 
9 94.4875 
10 154.818 
ITEM: TIMESTEP
43600
ITEM: NUMBER OF ENTRIES
10
ITEM: BOX BOUNDS pp pp pp
-1.0000000000000000e+01 1.0000000000000000e+01
-1.0000000000000000e+01 1.0000000000000000e+01
-1.0000000000000000e+01 1.0000000000000000e+01
ITEM: ENTRIES index c_angles
1 125.422 
2 125.654 
3 72.1307 
4 139.484 
5 33.5554 
6 131.961 
7 98.9385 
8 33.6238 
9 72.7873 
10 142.298 
ITEM: TIMESTEP
43700
ITEM: NUMBER OF ENTRIES
10
ITEM: BOX BOUNDS pp pp pp
-1.0000000000000000e+01 1.0000000000000000e+01
-1.0000000000000000e+01 1.0000000000000000e+01
-1.0000000000000000e+01 1.0000000000000000e+01
ITEM: ENTRIES index c_angles
1 130.925 
2 117.647 
3 66.0852 
4 134.546 
5 42.5539 
6 126.053 
7 103.317 
8 28.0764 
9 55.0418 
10 125.906 
ITEM: TIMESTEP
43800
ITEM: NUMBER OF ENTRIES
10
ITEM: BOX BOUNDS pp pp pp
-1.0000000000000000e+01 1.0000000000000000e+01
-1.0000000000000000e+01 1.0000000000000000e+01
-1.0000000000000000e+01 1.0000000000000000e+01
ITEM: ENTRIES index c_angles
1 124.586 
2 110.495 
3 54.8938 
4 127.176 
5 58.0231 
6 109.126 
7 106.132 
8 22.7659 
9 42.8082 
10 110.225 
ITEM: TIMESTEP
43900
ITEM: NUMBER OF ENTRIES
10
ITEM: BOX BOUNDS pp pp pp
-1.0000000000000000e+01 1.0000000000000000e+01
-1.0000000000000000e+01 1.0000000000000000e+01
-1.0000000000000000e+01 1.0000000000000000e+01
ITEM: ENTRIES index c_angles
1 108.977 
2 106.175 
3 49.2754 
4 123.99 
5 73.9395 
6 92.1797 
7 107.521 
8 21.7061 
9 34.8466 
10 97.5625 
ITEM: TIMESTEP
44000
ITEM: NUMBER OF ENTRIES
10
ITEM: BOX BOUNDS pp pp pp
-1.0000000000000000e+01 1.0000000000000000e+01
-1.0000000000000000e+01 1.0000000000000000e+01
-1.0000000000000000e+01 1.0000000000000000e+01
ITEM: ENTRIES index c_angles
1 93.8569 
2 110.543 
3 51.7198 
4 125.724 
5 91.6494 
6 78.2389 
7 104.621 
8 23.0746 
9 26.4846 
10 90.0992 
ITEM: TIMESTEP
44100
ITEM: NUMBER OF ENTRIES
10
ITEM: BOX BOUNDS pp pp pp
-1.0000000000000000e+01 1.0000000000000000e+01
-1.0000000000000000e+01 1.0000000000000000e+01
-1.0000000000000000e+01 1.0000000000000000e+01
ITEM: ENTRIES index c_angles
1 86.233 
2 119.769 
3 56.0037 
4 96.3031 
5 129.301 
6 70.9103 
7 101.354 
8 26.5315 
9 87.9131 
10 18.1005 
ITEM: TIMESTEP
44200
ITEM: NUMBER OF ENTRIES
10
ITEM: BOX BOUNDS pp pp pp
-1.0000000000000000e+01 1.0000000000000000e+01
-1.0000000000000000e+01 1.0000000000000000e+01
-1.0000000000000000e+01 1.0000000000000000e+01
ITEM: ENTRIES index c_angles
1 85.5059 
2 125.452 
3 61.9848 
4 82.5536 
5 129.8 
6 68.6814 
7 96.7655 
8 29.3865 
9 83.8916 
10 12.8287 
ITEM: TIMESTEP
44300
ITEM: NUMBER OF ENTRIES
10
ITEM: BOX BOUNDS pp pp pp
-1.0000000000000000e+01 1.0000000000000000e+01
-1.0000000000000000e+01 1.0000000000000000e+01
-1.0000000000000000e+01 1.0000000000000000e+01
ITEM: ENTRIES index c_angles
1 86.5391 
2 125.336 
3 69.1411 
4 66.6686 
5 127.9 
6 69.9827 
7 88.8497 
8 31.6119 
9 85.3984 
10 18.0211 
ITEM: TIMESTEP
44400
ITEM: NUMBER OF ENTRIES
10
ITEM: BOX BOUNDS pp pp pp
-1.0000000000000000e+01 1.0000000000000000e+01
-1.0000000000000000e+01 1.0000000000000000e+01
-1.0000000000000000e+01 1.0000000000000000e+01
ITEM: ENTRIES index c_angles
1 85.0716 
2 124.863 
3 84.5035 
4 55.0266 
5 124.189 
6 66.0125 
7 85.5978 
8 29.805 
9 90.436 
10 24.9739 
ITEM: TIMESTEP
44500
ITEM: NUMBER OF ENTRIES
10
ITEM: BOX BOUNDS pp pp pp
-1.0000000000000000e+01 1.0000000000000000e+01
-1.0000000000000000e+01 1.0000000000000000e+01
-1.0000000000000000e+01 1.0000000000000000e+01
ITEM: ENTRIES index c_angles
1 73.6805 
2 123.791 
3 101.413 
4 46.2969 
5 123.348 
6 55.7903 
7 84.9953 
8 28.5303 
9 92.2618 
10 28.5246 
ITEM: TIMESTEP
44600
ITEM: NUMBER OF ENTRIES
10
ITEM: BOX BOUNDS pp pp pp
-1.0000000000000000e+01 1.0000000000000000e+01
-1.0000000000000000e+01 1.0000000000000000e+01
-1.0000000000000000e+01 1.0000000000000000e+01
ITEM: ENTRIES index c_angles
1 57.9111 
2 125.196 
3 117.021 
4 41.9368 
5 127.393 
6 41.9657 
7 88.7586 
8 32.4565 
9 87.2065 
10 34.6385 
ITEM: TIMESTEP
44700
ITEM: NUMBER OF ENTRIES
10
ITEM: BOX BOUNDS pp pp pp
-1.0000000000000000e+01 1.0000000000000000e+01
-1.0000000000000000e+01 1.0000000000000000e+01
-1.0000000000000000e+01 1.0000000000000000e+01
ITEM: ENTRIES index c_angles
1 46.1254 
2 132.866 
3 123.539 
4 42.5992 
5 138.479 
6 34.2978 
7 93.209 
8 35.3275 
9 77.2838 
10 37.2676 
ITEM: TIMESTEP
44800
ITEM: NUMBER OF ENTRIES
10
ITEM: BOX BOUNDS pp pp pp
-1.0000000000000000e+01 1.0000000000000000e+01
-1.0000000000000000e+01 1.0000000000000000e+01
-1.0000000000000000e+01 1.0000000000000000e+01
ITEM: ENTRIES index c_angles
1 37.7028 
2 135.777 
3 116.958 
4 49.9103 
5 154.625 
6 30.7795 
7 94.7208 
8 35.424 
9 69.4793 
10 36.3871 
ITEM: TIMESTEP
44900
ITEM: NUMBER OF ENTRIES
10
ITEM: BOX BOUNDS pp pp pp
-1.0000000000000000e+01 1.0000000000000000e+01
-1.0000000000000000e+01 1.0000000000000000e+01
-1.0000000000000000e+01 1.0000000000000000e+01
ITEM: ENTRIES index c_angles
1 34.1617 
2 133.725 
3 113.59 
4 64.3181 
5 172.775 
6 26.377 
7 91.0361 
8 29.1062 
9 66.9671 
10 35.7447 
ITEM: TIMESTEP
45000
ITEM: NUMBER OF ENTRIES
10
ITEM: BOX BOUNDS pp pp pp
-1.0000000000000000e+01 1.0000000000000000e+01
-1.0000000000000000e+01 1.0000000000000000e+01
-1.0000000000000000e+01 1.0000000000000000e+01
ITEM: ENTRIES index c_angles
1 34.7376 
2 136.351 
3 117.137 
4 84.0989 
5 164.34 
6 24.1421 
7 75.7437 
8 24.049 
9 68.4698 
10 36.2122 
ITEM: TIMESTEP
45100
ITEM: NUMBER OF ENTRIES
10
ITEM: BOX BOUNDS pp pp pp
-1.0000000000000000e+01 1.0000000000000000e+01
-1.0000000000000000e+01 1.0000000000000000e+01
-1.0000000000000000e+01 1.0000000000000000e+01
ITEM: ENTRIES index c_angles
1 140.033 
2 121.857 
3 102.817 
4 153.678 
5 25.5014 
6 38.3833 
7 52.3761 
8 23.0906 
9 71.3391 
10 38.8704 
ITEM: TIMESTEP
45200
ITEM: NUMBER OF ENTRIES
10
ITEM: BOX BOUNDS pp pp pp
-1.0000000000000000e+01 1.0000000000000000e+01
-1.0000000000000000e+01 1.0000000000000000e+01
-1.0000000000000000e+01 1.0000000000000000e+01
ITEM: ENTRIES index c_angles
1 147.264 
2 126.406 
3 115.284 
4 148.217 
5 29.8266 
6 44.8236 
7 34.6826 
8 22.0087 
9 69.6263 
10 44.9602 
ITEM: TIMESTEP
45300
ITEM: NUMBER OF ENTRIES
10
ITEM: BOX BOUNDS pp pp pp
-1.0000000000000000e+01 1.0000000000000000e+01
-1.0000000000000000e+01 1.0000000000000000e+01
-1.0000000000000000e+01 1.0000000000000000e+01
ITEM: ENTRIES index c_angles
1 163.397 
2 130.921 
3 116.202 
4 141.671 
5 39.2711 
6 49.0874 
7 26.3763 
8 22.5394 
9 58.4497 
10 54.9961 
ITEM: TIMESTEP
45400
ITEM: NUMBER OF ENTRIES
10
ITEM: BOX BOUNDS pp pp pp
-1.0000000000000000e+01 1.0000000000000000e+01
-1.0000000000000000e+01 1.0000000000000000e+01
-1.0000000000000000e+01 1.0000000000000000e+01
ITEM: ENTRIES index c_angles
1 165.043 
2 138.081 
3 108.271 
4 133.309 
5 53.4825 
6 44.9315 
7 25.1256 
8 29.2086 
9 36.9784 
10 66.5276 
ITEM: TIMESTEP
45500
ITEM: NUMBER OF ENTRIES
10
ITEM: BOX BOUNDS pp pp pp
-1.0000000000000000e+01 1.0000000000000000e+01
-1.0000000000000000e+01 1.0000000000000000e+01
-1.0000000000000000e+01 1.0000000000000000e+01
ITEM: ENTRIES index c_angles
1 151.094 
2 144.871 
3 96.7327 
4 127.414 
5 62.6738 
6 41.6674 
7 23.6636 
8 32.7956 
9 19.764 
10 73.3006 
ITEM: TIMESTEP
45600
ITEM: NUMBER OF ENTRIES
10
ITEM: BOX BOUNDS pp pp pp
-1.0000000000000000e+01 1.0000000000000000e+01
-1.0000000000000000e+01 1.0000000000000000e+01
-1.0000000000000000e+01 1.0000000000000000e+01
ITEM: ENTRIES index c_angles
1 139.72 
2 149.99 
3 87.9709 
4 127.745 
5 61.8523 
6 40.4879 
7 25.9021 
8 39.3174 
9 13.4908 
10 83.3384 
ITEM: TIMESTEP
45700
ITEM: NUMBER OF ENTRIES
10
ITEM: BOX BOUNDS pp pp pp
-1.0000000000000000e+01 1.0000000000000000e+01
-1.0000000000000000e+01 1.0000000000000000e+01
-1.0000000000000000e+01 1.0000000000000000e+01
ITEM: ENTRIES index c_angles
1 128.049 
2 152.83 
3 85.0632 
4 128.251 
5 58.3925 
6 44.6246 
7 34.9568 
8 50.0522 
9 14.2022 
10 94.2373 
ITEM: TIMESTEP
45800
ITEM: NUMBER OF ENTRIES
10
ITEM: BOX BOUNDS pp pp pp
-1.0000000000000000e+01 1.0000000000000000e+01
-1.0000000000000000e+01 1.0000000000000000e+01
-1.0000000000000000e+01 1.0000000000000000e+01
ITEM: ENTRIES index c_angles
1 120.497 
2 146.81 
3 82.1463 
4 117.466 
5 52.6739 
6 51.9819 
7 46.3061 
8 55.0043 
9 18.8172 
10 95.7347 
ITEM: TIMESTEP
45900
ITEM: NUMBER OF ENTRIES
10
ITEM: BOX BOUNDS pp pp pp
-1.0000000000000000e+01 1.0000000000000000e+01
-1.0000000000000000e+01 1.0000000000000000e+01
-1.0000000000000000e+01 1.0000000000000000e+01
ITEM: ENTRIES index c_angles
1 116.783 
2 136.11 
3 79.3761 
4 105.087 
5 51.6665 
6 62.2355 
7 63.6187 
8 53.0007 
9 26.5977 
10 97.0749 
ITEM: TIMESTEP
46000
ITEM: NUMBER OF ENTRIES
10
ITEM: BOX BOUNDS pp pp pp
-1.0000000000000000e+01 1.0000000000000000e+01
-1.0000000000000000e+01 1.0000000000000000e+01
-1.0000000000000000e+01 1.0000000000000000e+01
ITEM: ENTRIES index c_angles
1 115.452 
2 130.955 
3 74.1417 
4 90.3055 
5 51.6167 
6 75.1534 
7 79.3294 
8 45.5733 
9 31.3231 
10 99.325 
ITEM: TIMESTEP
46100
ITEM: NUMBER OF ENTRIES
10
ITEM: BOX BOUNDS pp pp pp
-1.0000000000000000e+01 1.0000000000000000e+01
-1.0000000000000000e+01 1.0000000000000000e+01
-1.0000000000000000e+01 1.0000000000000000e+01
ITEM: ENTRIES index c_angles
1 120.517 
2 128.502 
3 67.6123 
4 77.1472 
5 90.0206 
6 55.7144 
7 82.9323 
8 40.8266 
9 100.99 
10 35.3959 
ITEM: TIMESTEP
46200
ITEM: NUMBER OF ENTRIES
10
ITEM: BOX BOUNDS pp pp pp
-1.0000000000000000e+01 1.0000000000000000e+01
-1.0000000000000000e+01 1.0000000000000000e+01
-1.0000000000000000e+01 1.0000000000000000e+01
ITEM: ENTRIES index c_angles
1 127.08 
2 125.813 
3 63.1395 
4 65.6056 
5 108.855 
6 61.411 
7 78.7967 
8 37.7574 
9 105.545 
10 39.2149 
ITEM: TIMESTEP
46300
ITEM: NUMBER OF ENTRIES
10
ITEM: BOX BOUNDS pp pp pp
-1.0000000000000000e+01 1.0000000000000000e+01
-1.0000000000000000e+01 1.0000000000000000e+01
-1.0000000000000000e+01 1.0000000000000000e+01
ITEM: ENTRIES index c_angles
1 131.167 
2 127.901 
3 68.3449 
4 53.7914 
5 119.382 
6 61.541 
7 68.9077 
8 40.4952 
9 112.054 
10 41.2088 
ITEM: TIMESTEP
46400
ITEM: NUMBER OF ENTRIES
10
ITEM: BOX BOUNDS pp pp pp
-1.0000000000000000e+01 1.0000000000000000e+01
-1.0000000000000000e+01 1.0000000000000000e+01
-1.0000000000000000e+01 1.0000000000000000e+01
ITEM: ENTRIES index c_angles
1 134.784 
2 123.671 
3 75.1273 
4 41.6173 
5 123.121 
6 56.4372 
7 62.2595 
8 50.9973 
9 120.734 
10 40.4715 
ITEM: TIMESTEP
46500
ITEM: NUMBER OF ENTRIES
10
ITEM: BOX BOUNDS pp pp pp
-1.0000000000000000e+01 1.0000000000000000e+01
-1.0000000000000000e+01 1.0000000000000000e+01
-1.0000000000000000e+01 1.0000000000000000e+01
ITEM: ENTRIES index c_angles
1 130.314 
2 117.866 
3 76.6901 
4 34.5215 
5 121.449 
6 54.3167 
7 62.5941 
8 62.2386 
9 130.881 
10 36.1297 
ITEM: TIMESTEP
46600
ITEM: NUMBER OF ENTRIES
10
ITEM: BOX BOUNDS pp pp pp
-1.0000000000000000e+01 1.0000000000000000e+01
-1.0000000000000000e+01 1.0000000000000000e+01
-1.0000000000000000e+01 1.0000000000000000e+01
ITEM: ENTRIES index c_angles
1 117.514 
2 112.036 
3 79.2583 
4 28.2831 
5 117.813 
6 56.8971 
7 62.9756 
8 82.6659 
9 139.387 
10 32.6589 
ITEM: TIMESTEP
46700
ITEM: NUMBER OF ENTRIES
10
ITEM: BOX BOUNDS pp pp pp
-1.0000000000000000e+01 1.0000000000000000e+01
-1.0000000000000000e+01 1.0000000000000000e+01
-1.0000000000000000e+01 1.0000000000000000e+01
ITEM: ENTRIES index c_angles
1 106.57 
2 107.211 
3 77.5672 
4 25.8832 
5 114.812 
6 62.0282 
7 58.8882 
8 104.104 
9 137.387 
10 32.3942 
ITEM: TIMESTEP
46800
ITEM: NUMBER OF ENTRIES
10
ITEM: BOX BOUNDS pp pp pp
-1.0000000000000000e+01 1.0000000000000000e+01
-1.0000000000000000e+01 1.0000000000000000e+01
-1.0000000000000000e+01 1.0000000000000000e+01
ITEM: ENTRIES index c_angles
1 97.4306 
2 100.835 
3 71.1853 
4 26.1201 
5 113.354 
6 63.3804 
7 54.2834 
8 111.631 
9 122.524 
10 28.9614 
ITEM: TIMESTEP
46900
ITEM: NUMBER OF ENTRIES
10
ITEM: BOX BOUNDS pp pp pp
-1.0000000000000000e+01 1.0000000000000000e+01
-1.0000000000000000e+01 1.0000000000000000e+01
-1.0000000000000000e+01 1.0000000000000000e+01
ITEM: ENTRIES index c_angles
1 80.7293 
2 96.9323 
3 65.0572 
4 27.6982 
5 113.483 
6 66.3548 
7 48.8303 
8 110.593 
9 106.396 
10 18.8057 
ITEM: TIMESTEP
47000
ITEM: NUMBER OF ENTRIES
10
ITEM: BOX BOUNDS pp pp pp
-1.0000000000000000e+01 1.0000000000000000e+01
-1.0000000000000000e+01 1.0000000000000000e+01
-1.0000000000000000e+01 1.0000000000000000e+01
ITEM: ENTRIES index c_angles
1 63.2418 
2 94.3285 
3 55.0291 
4 30.9978 
5 114.497 
6 60.6328 
7 42.8292 
8 107.87 
9 94.9709 
10 12.0938 
ITEM: TIMESTEP
47100
ITEM: NUMBER OF ENTRIES
10
ITEM: BOX BOUNDS pp pp pp
-1.0000000000000000e+01 1.0000000000000000e+01
-1.0000000000000000e+01 1.0000000000000000e+01
-1.0000000000000000e+01 1.0000000000000000e+01
ITEM: ENTRIES index c_angles
1 44.4449 
2 93.6772 
3 45.1986 
4 107.553 
5 29.6689 
6 55.3854 
7 36.2321 
8 106.916 
9 93.1605 
10 22.7745 
ITEM: TIMESTEP
47200
ITEM: NUMBER OF ENTRIES
10
ITEM: BOX BOUNDS pp pp pp
-1.0000000000000000e+01 1.0000000000000000e+01
-1.0000000000000000e+01 1.0000000000000000e+01
-1.0000000000000000e+01 1.0000000000000000e+01
ITEM: ENTRIES index c_angles
1 29.2445 
2 96.8665 
3 35.5564 
4 92.2748 
5 25.9343 
6 52.3116 
7 33.7599 
8 104.49 
9 96.7679 
10 34.3813 
ITEM: TIMESTEP
47300
ITEM: NUMBER OF ENTRIES
10
ITEM: BOX BOUNDS pp pp pp
-1.0000000000000000e+01 1.0000000000000000e+01
-1.0000000000000000e+01 1.0000000000000000e+01
-1.0000000000000000e+01 1.0000000000000000e+01
ITEM: ENTRIES index c_angles
1 21.4658 
2 101.26 
3 26.8054 
4 79.4415 
5 21.9094 
6 52.7809 
7 36.7908 
8 107.398 
9 106.103 
10 46.888 
ITEM: TIMESTEP
47400
ITEM: NUMBER OF ENTRIES
10
ITEM: BOX BOUNDS pp pp pp
-1.0000000000000000e+01 1.0000000000000000e+01
-1.0000000000000000e+01 1.0000000000000000e+01
-1.0000000000000000e+01 1.0000000000000000e+01
ITEM: ENTRIES index c_angles
1 19.3058 
2 105.222 
3 21.6966 
4 69.4624 
5 20.7669 
6 58.8422 
7 39.5098 
8 112.037 
9 116.432 
10 52.3969 
ITEM: TIMESTEP
47500
ITEM: NUMBER OF ENTRIES
10
ITEM: BOX BOUNDS pp pp pp
-1.0000000000000000e+01 1.0000000000000000e+01
-1.0000000000000000e+01 1.0000000000000000e+01
-1.0000000000000000e+01 1.0000000000000000e+01
ITEM: ENTRIES index c_angles
1 15.9834 
2 108.853 
3 18.798 
4 62.4212 
5 25.1505 
6 66.0504 
7 36.638 
8 115.04 
9 128.237 
10 54.2908 
ITEM: TIMESTEP
47600
ITEM: NUMBER OF ENTRIES
10
ITEM: BOX BOUNDS pp pp pp
-1.0000000000000000e+01 1.0000000000000000e+01
-1.0000000000000000e+01 1.0000000000000000e+01
-1.0000000000000000e+01 1.0000000000000000e+01
ITEM: ENTRIES index c_angles
1 11.2086 
2 114.989 
3 19.1218 
4 61.1796 
5 30.3708 
6 78.7322 
7 35.3317 
8 115.317 
9 143.52 
10 52.5299 
ITEM: TIMESTEP
47700
ITEM: NUMBER OF ENTRIES
10
ITEM: BOX BOUNDS pp pp pp
-1.0000000000000000e+01 1.0000000000000000e+01
-1.0000000000000000e+01 1.0000000000000000e+01
-1.0000000000000000e+01 1.0000000000000000e+01
ITEM: ENTRIES index c_angles
1 2.83124 
2 125.532 
3 25.5984 
4 60.3003 
5 36.3094 
6 83.8766 
7 35.6874 
8 115.745 
9 152.279 
10 50.9913 
ITEM: TIMESTEP
47800
ITEM: NUMBER OF ENTRIES
10
ITEM: BOX BOUNDS pp pp pp
-1.0000000000000000e+01 1.0000000000000000e+01
-1.0000000000000000e+01 1.0000000000000000e+01
-1.0000000000000000e+01 1.0000000000000000e+01
ITEM: ENTRIES index c_angles
1 9.67442 
2 143.486 
3 28.5814 
4 57.8394 
5 45.3361 
6 83.7831 
7 43.2084 
8 111.366 
9 151.306 
10 50.2141 
ITEM: TIMESTEP
47900
ITEM: NUMBER OF ENTRIES
10
ITEM: BOX BOUNDS pp pp pp
-1.0000000000000000e+01 1.0000000000000000e+01
-1.0000000000000000e+01 1.0000000000000000e+01
-1.0000000000000000e+01 1.0000000000000000e+01
ITEM: ENTRIES index c_angles
1 27.1767 
2 159.393 
3 26.7297 
4 57.1707 
5 55.51 
6 78.2977 
7 56.5651 
8 104.532 
9 149.308 
10 45.8919 
ITEM: TIMESTEP
48000
ITEM: NUMBER OF ENTRIES
10
ITEM: BOX BOUNDS pp pp pp
-1.0000000000000000e+01 1.0000000000000000e+01
-1.0000000000000000e+01 1.0000000000000000e+01
-1.0000000000000000e+01 1.0000000000000000e+01
ITEM: ENTRIES index c_angles
1 47.4711 
2 163.761 
3 25.9846 
4 51.6581 
5 64.202 
6 65.3265 
7 65.8658 
8 94.1545 
9 146.522 
10 31.948 
ITEM: TIMESTEP
48100
ITEM: NUMBER OF ENTRIES
10
ITEM: BOX BOUNDS pp pp pp
-1.0000000000000000e+01 1.0000000000000000e+01
-1.0000000000000000e+01 1.0000000000000000e+01
-1.0000000000000000e+01 1.0000000000000000e+01
ITEM: ENTRIES index c_angles
1 60.383 
2 164.653 
3 24.5149 
4 43.7985 
5 74.4763 
6 58.5118 
7 70.5974 
8 88.5647 
9 143.924 
10 17.041 
ITEM: TIMESTEP
48200
ITEM: NUMBER OF ENTRIES
10
ITEM: BOX BOUNDS pp pp pp
-1.0000000000000000e+01 1.0000000000000000e+01
-1.0000000000000000e+01 1.0000000000000000e+01
-1.0000000000000000e+01 1.0000000000000000e+01
ITEM: ENTRIES index c_angles
1 57.5447 
2 164.825 
3 26.6005 
4 39.2657 
5 78.0569 
6 93.7208 
7 59.5391 
8 74.8035 
9 146.79 
10 14.5497 
ITEM: TIMESTEP
48300
ITEM: NUMBER OF ENTRIES
10
ITEM: BOX BOUNDS pp pp pp
-1.0000000000000000e+01 1.0000000000000000e+01
-1.0000000000000000e+01 1.0000000000000000e+01
-1.0000000000000000e+01 1.0000000000000000e+01
ITEM: ENTRIES index c_angles
1 54.1894 
2 142.475 
3 30.2792 
4 38.583 
5 89.6299 
6 112.598 
7 63.0489 
8 65.4563 
9 148.393 
10 22.5329 
ITEM: TIMESTEP
48400
ITEM: NUMBER OF ENTRIES
10
ITEM: BOX BOUNDS pp pp pp
-1.0000000000000000e+01 1.0000000000000000e+01
-1.0000000000000000e+01 1.0000000000000000e+01
-1.0000000000000000e+01 1.0000000000000000e+01
ITEM: ENTRIES index c_angles
1 47.0407 
2 115.39 
3 36.8269 
4 42.0708 
5 101.366 
6 124.996 
7 66.2123 
8 57.8501 
9 147.466 
10 31.9341 
ITEM: TIMESTEP
48500
ITEM: NUMBER OF ENTRIES
10
ITEM: BOX BOUNDS pp pp pp
-1.0000000000000000e+01 1.0000000000000000e+01
-1.0000000000000000e+01 1.0000000000000000e+01
-1.0000000000000000e+01 1.0000000000000000e+01
ITEM: ENTRIES index c_angles
1 40.3182 
2 97.0206 
3 47.3774 
4 44.7744 
5 113.199 
6 125.902 
7 68.3205 
8 48.9544 
9 149.45 
10 36.2224 
ITEM: TIMESTEP
48600
ITEM: NUMBER OF ENTRIES
10
ITEM: BOX BOUNDS pp pp pp
-1.0000000000000000e+01 1.0000000000000000e+01
-1.0000000000000000e+01 1.0000000000000000e+01
-1.0000000000000000e+01 1.0000000000000000e+01
ITEM: ENTRIES index c_angles
1 38.4201 
2 83.0276 
3 55.7505 
4 43.1034 
5 113.472 
6 128.813 
7 76.2766 
8 42.8377 
9 151.097 
10 39.9685 
ITEM: TIMESTEP
48700
ITEM: NUMBER OF ENTRIES
10
ITEM: BOX BOUNDS pp pp pp
-1.0000000000000000e+01 1.0000000000000000e+01
-1.0000000000000000e+01 1.0000000000000000e+01
-1.0000000000000000e+01 1.0000000000000000e+01
ITEM: ENTRIES index c_angles
1 38.1547 
2 71.3816 
3 55.4213 
4 38.4903 
5 98.2293 
6 133.432 
7 86.8454 
8 40.2876 
9 144.803 
10 44.8893 
ITEM: TIMESTEP
48800
ITEM: NUMBER OF ENTRIES
10
ITEM: BOX BOUNDS pp pp pp
-1.0000000000000000e+01 1.0000000000000000e+01
-1.0000000000000000e+01 1.0000000000000000e+01
-1.0000000000000000e+01 1.0000000000000000e+01
ITEM: ENTRIES index c_angles
1 43.9762 
2 65.3572 
3 54.5198 
4 35.8474 
5 78.3124 
6 142.898 
7 93.9028 
8 42.2852 
9 116.99 
10 51.9075 
ITEM: TIMESTEP
48900
ITEM: NUMBER OF ENTRIES
10
ITEM: BOX BOUNDS pp pp pp
-1.0000000000000000e+01 1.0000000000000000e+01
-1.0000000000000000e+01 1.0000000000000000e+01
-1.0000000000000000e+01 1.0000000000000000e+01
ITEM: ENTRIES index c_angles
1 52.7283 
2 66.5391 
3 55.0043 
4 38.2314 
5 61.0119 
6 151.147 
7 105.984 
8 42.0402 
9 72.9299 
10 60.2909 
ITEM: TIMESTEP
49000
ITEM: NUMBER OF ENTRIES
10
ITEM: BOX BOUNDS pp pp pp
-1.0000000000000000e+01 1.0000000000000000e+01
-1.0000000000000000e+01 1.0000000000000000e+01
-1.0000000000000000e+01 1.0000000000000000e+01
ITEM: ENTRIES index c_angles
1 59.8996 
2 76.4414 
3 59.1776 
4 46.9864 
5 50.0621 
6 153.032 
7 117.18 
8 40.053 
9 48.4252 
10 70.0506 
ITEM: TIMESTEP
49100
ITEM: NUMBER OF ENTRIES
10
ITEM: BOX BOUNDS pp pp pp
-1.0000000000000000e+01 1.0000000000000000e+01
-1.0000000000000000e+01 1.0000000000000000e+01
-1.0000000000000000e+01 1.0000000000000000e+01
ITEM: ENTRIES index c_angles
1 68.0475 
2 87.4841 
3 71.784 
4 66.1316 
5 47.2851 
6 138.876 
7 129.516 
8 38.6507 
9 32.9525 
10 72.0456 
ITEM: TIMESTEP
49200
ITEM: NUMBER OF ENTRIES
10
ITEM: BOX BOUNDS pp pp pp
-1.0000000000000000e+01 1.0000000000000000e+01
-1.0000000000000000e+01 1.0000000000000000e+01
-1.0000000000000000e+01 1.0000000000000000e+01
ITEM: ENTRIES index c_angles
1 71.0943 
2 96.6179 
3 79.692 
4 118.032 
5 144.569 
6 48.6363 
7 33.3873 
8 83.7915 
9 21.227 
10 71.9514 
ITEM: TIMESTEP
49300
ITEM: NUMBER OF ENTRIES
10
ITEM: BOX BOUNDS pp pp pp
-1.0000000000000000e+01 1.0000000000000000e+01
-1.0000000000000000e+01 1.0000000000000000e+01
-1.0000000000000000e+01 1.0000000000000000e+01
ITEM: ENTRIES index c_angles
1 70.7212 
2 97.9199 
3 82.4003 
4 100.739 
5 153.055 
6 50.1734 
7 31.3457 
8 99.9503 
9 11.015 
10 66.6072 
ITEM: TIMESTEP
49400
ITEM: NUMBER OF ENTRIES
10
ITEM: BOX BOUNDS pp pp pp
-1.0000000000000000e+01 1.0000000000000000e+01
-1.0000000000000000e+01 1.0000000000000000e+01
-1.0000000000000000e+01 1.0000000000000000e+01
ITEM: ENTRIES index c_angles
1 68.5597 
2 95.8576 
3 80.0116 
4 93.4953 
5 153.453 
6 52.0523 
7 30.2393 
8 112.28 
9 4.08568 
10 59.5411 
ITEM: TIMESTEP
49500
ITEM: NUMBER OF ENTRIES
10
ITEM: BOX BOUNDS pp pp pp
-1.0000000000000000e+01 1.0000000000000000e+01
-1.0000000000000000e+01 1.0000000000000000e+01
-1.0000000000000000e+01 1.0000000000000000e+01
ITEM: ENTRIES index c_angles
1 68.8668 
2 101.374 
3 75.4109 
4 94.6534 
5 147.05 
6 56.0918 
7 30.8089 
8 127.535 
9 13.816 
10 57.5227 
ITEM: TIMESTEP
49600
ITEM: NUMBER OF ENTRIES
10
ITEM: BOX BOUNDS pp pp pp
-1.0000000000000000e+01 1.0000000000000000e+01
-1.0000000000000000e+01 1.0000000000000000e+01
-1.0000000000000000e+01 1.0000000000000000e+01
ITEM: ENTRIES index c_angles
1 59.8238 
2 106.693 
3 65.7999 
4 101.926 
5 139.626 
6 62.9798 
7 39.0826 
8 134.584 
9 24.4107 
10 61.1632 
ITEM: TIMESTEP
49700
ITEM: NUMBER OF ENTRIES
10
ITEM: BOX BOUNDS pp pp pp
-1.0000000000000000e+01 1.0000000000000000e+01
-1.0000000000000000e+01 1.0000000000000000e+01
-1.0000000000000000e+01 1.0000000000000000e+01
ITEM: ENTRIES index c_angles
1 48.8317 
2 114.522 
3 50.0314 
4 111.201 
5 136.315 
6 69.468 
7 52.9446 
8 134.444 
9 29.9022 
10 69.8927 
ITEM: TIMESTEP
49800
ITEM: NUMBER OF ENTRIES
10
ITEM: BOX BOUNDS pp pp pp
-1.0000000000000000e+01 1.0000000000000000e+01
-1.0000000000000000e+01 1.0000000000000000e+01
-1.0000000000000000e+01 1.0000000000000000e+01
ITEM: ENTRIES index c_angles
1 40.2603 
2 121.082 
3 37.7319 
4 112.326 
5 130.974 
6 72.5793 
7 72.9703 
8 137.499 
9 31.8308 
10 81.4286 
ITEM: TIMESTEP
49900
ITEM: NUMBER OF ENTRIES
10
ITEM: BOX BOUNDS pp pp pp
-1.0000000000000000e+01 1.0000000000000000e+01
-1.0000000000000000e+01 1.0000000000000000e+01
-1.0000000000000000e+01 1.0000000000000000e+01
ITEM: ENTRIES index c_angles
1 31.0646 
2 118.414 
3 30.5196 
4 108.542 
5 122.169 
6 72.8559 
7 106.217 
8 142.043 
9 32.3443 
10 93.0563 
ITEM: TIMESTEP
50000
ITEM: NUMBER OF ENTRIES
10
ITEM: BOX BOUNDS pp pp pp
-1.0000000000000000e+01 1.0000000000000000e+01
-1.0000000000000000e+01 1.0000000000000000e+01
-1.0000000000000000e+01 1.0000000000000000e+01
ITEM: ENTRIES index c_angles
1 26.0436 
2 113.542 
3 24.5143 
4 103.718 
5 115.12 
6 77.5063 
7 130.183 
8 153.839 
9 34.1034 
10 106.05 
ITEM: TIMESTEP
50100
ITEM: NUMBER OF ENTRIES
10
ITEM: BOX BOUNDS pp pp pp
-1.0000000000000000e+01 1.0000000000000000e+01
-1.0000000000000000e+01 1.0000000000000000e+01
-1.0000000000000000e+01 1.0000000000000000e+01
ITEM: ENTRIES index c_angles
1 24.4239 
2 112.203 
3 21.4591 
4 99.7094 
5 106.373 
6 87.8837 
7 144.777 
8 167.899 
9 36.558 
10 116.381 
ITEM: TIMESTEP
50200
ITEM: NUMBER OF ENTRIES
10
ITEM: BOX BOUNDS pp pp pp
-1.0000000000000000e+01 1.0000000000000000e+01
-1.0000000000000000e+01 1.0000000000000000e+01
-1.0000000000000000e+01 1.0000000000000000e+01
ITEM: ENTRIES index c_angles
1 20.0596 
2 25.2319 
3 115.542 
4 106.018 
5 92.2944 
6 100.114 
7 158.406 
8 154.422 
9 41.6876 
10 126.173 
ITEM: TIMESTEP
50300
ITEM: NUMBER OF ENTRIES
10
ITEM: BOX BOUNDS pp pp pp
-1.0000000000000000e+01 1.0000000000000000e+01
-1.0000000000000000e+01 1.0000000000000000e+01
-1.0000000000000000e+01 1.0000000000000000e+01
ITEM: ENTRIES index c_angles
1 16.7635 
2 30.1454 
3 111.575 
4 122.947 
5 88.1092 
6 97.2277 
7 139.713 
8 158.57 
9 49.834 
10 123.816 
ITEM: TIMESTEP
50400
ITEM: NUMBER OF ENTRIES
10
ITEM: BOX BOUNDS pp pp pp
-1.0000000000000000e+01 1.0000000000000000e+01
-1.0000000000000000e+01 1.0000000000000000e+01
-1.0000000000000000e+01 1.0000000000000000e+01
ITEM: ENTRIES index c_angles
1 15.419 
2 28.5747 
3 101.493 
4 144.329 
5 91.2699 
6 95.8612 
7 117.351 
8 159.125 
9 65.2173 
10 115.336 
ITEM: TIMESTEP
50500
ITEM: NUMBER OF ENTRIES
10
ITEM: BOX BOUNDS pp pp pp
-1.0000000000000000e+01 1.0000000000000000e+01
-1.0000000000000000e+01 1.0000000000000000e+01
-1.0000000000000000e+01 1.0000000000000000e+01
ITEM: ENTRIES index c_angles
1 18.6882 
2 21.3851 
3 94.4754 
4 167.286 
5 98.1733 
6 97.5237 
7 98.9505 
8 155.251 
9 79.3278 
10 101.518 
ITEM: TIMESTEP
50600
ITEM: NUMBER OF ENTRIES
10
ITEM: BOX BOUNDS pp pp pp
-1.0000000000000000e+01 1.0000000000000000e+01
-1.0000000000000000e+01 1.0000000000000000e+01
-1.0000000000000000e+01 1.0000000000000000e+01
ITEM: ENTRIES index c_angles
1 23.4489 
2 13.9696 
3 91.0671 
4 162.561 
5 109.495 
6 96.3589 
7 86.5979 
8 150.89 
9 94.1668 
10 82.0839 
ITEM: TIMESTEP
50700
ITEM: NUMBER OF ENTRIES
10
ITEM: BOX BOUNDS pp pp pp
-1.0000000000000000e+01 1.0000000000000000e+01
-1.0000000000000000e+01 1.0000000000000000e+01
-1.0000000000000000e+01 1.0000000000000000e+01
ITEM: ENTRIES index c_angles
1 27.2801 
2 9.76851 
3 79.6601 
4 154.375 
5 117.353 
6 94.7087 
7 81.1964 
8 144.999 
9 107.891 
10 67.3733 
ITEM: TIMESTEP
50800
ITEM: NUMBER OF ENTRIES
10
ITEM: BOX BOUNDS pp pp pp
-1.0000000000000000e+01 1.0000000000000000e+01
-1.0000000000000000e+01 1.0000000000000000e+01
-1.0000000000000000e+01 1.0000000000000000e+01
ITEM: ENTRIES index c_angles
1 22.651 
2 6.05681 
3 62.5045 
4 153.78 
5 120.736 
6 95.8467 
7 79.8249 
8 142.645 
9 111.815 
10 58.3382 
ITEM: TIMESTEP
50900
ITEM: NUMBER OF ENTRIES
10
ITEM: BOX BOUNDS pp pp pp
-1.0000000000000000e+01 1.0000000000000000e+01
-1.0000000000000000e+01 1.0000000000000000e+01
-1.0000000000000000e+01 1.0000000000000000e+01
ITEM: ENTRIES index c_angles
1 12.7998 
2 11.1774 
3 49.3855 
4 149.07 
5 120.321 
6 100.674 
7 78.1469 
8 137.037 
9 106.072 
10 58.0007 
ITEM: TIMESTEP
51000
ITEM: NUMBER OF ENTRIES
10
ITEM: BOX BOUNDS pp pp pp
-1.0000000000000000e+01 1.0000000000000000e+01
-1.0000000000000000e+01 1.0000000000000000e+01
-1.0000000000000000e+01 1.0000000000000000e+01
ITEM: ENTRIES index c_angles
1 9.66584 
2 23.4803 
3 40.5936 
4 143.27 
5 119.046 
6 105.588 
7 81.3162 
8 132.882 
9 105.307 
10 64.4628 
ITEM: TIMESTEP
51100
ITEM: NUMBER OF ENTRIES
10
ITEM: BOX BOUNDS pp pp pp
-1.0000000000000000e+01 1.0000000000000000e+01
-1.0000000000000000e+01 1.0000000000000000e+01
-1.0000000000000000e+01 1.0000000000000000e+01
ITEM: ENTRIES index c_angles
1 13.6422 
2 36.798 
3 39.2367 
4 135.338 
5 78.4619 
6 111.975 
7 111.521 
8 133.443 
9 103.231 
10 70.3367 
ITEM: TIMESTEP
51200
ITEM: NUMBER OF ENTRIES
10
ITEM: BOX BOUNDS pp pp pp
-1.0000000000000000e+01 1.0000000000000000e+01
-1.0000000000000000e+01 1.0000000000000000e+01
-1.0000000000000000e+01 1.0000000000000000e+01
ITEM: ENTRIES index c_angles
1 16.3052 
2 51.9939 
3 45.0046 
4 127.927 
5 78.0059 
6 108.247 
7 122.154 
8 127.594 
9 92.1802 
10 72.5255 
ITEM: TIMESTEP
51300
ITEM: NUMBER OF ENTRIES
10
ITEM: BOX BOUNDS pp pp pp
-1.0000000000000000e+01 1.0000000000000000e+01
-1.0000000000000000e+01 1.0000000000000000e+01
-1.0000000000000000e+01 1.0000000000000000e+01
ITEM: ENTRIES index c_angles
1 14.4324 
2 70.687 
3 53.7617 
4 121.563 
5 77.8152 
6 99.5478 
7 127.984 
8 113.051 
9 78.3591 
10 67.0526 
ITEM: TIMESTEP
51400
ITEM: NUMBER OF ENTRIES
10
ITEM: BOX BOUNDS pp pp pp
-1.0000000000000000e+01 1.0000000000000000e+01
-1.0000000000000000e+01 1.0000000000000000e+01
-1.0000000000000000e+01 1.0000000000000000e+01
ITEM: ENTRIES index c_angles
1 12.6175 
2 85.6773 
3 65.7994 
4 118.209 
5 85.4418 
6 89.1141 
7 121.793 
8 98.4616 
9 71.1833 
10 55.0576 
ITEM: TIMESTEP
51500
ITEM: NUMBER OF ENTRIES
10
ITEM: BOX BOUNDS pp pp pp
-1.0000000000000000e+01 1.0000000000000000e+01
-1.0000000000000000e+01 1.0000000000000000e+01
-1.0000000000000000e+01 1.0000000000000000e+01
ITEM: ENTRIES index c_angles
1 11.8081 
2 99.1201 
3 77.4782 
4 111.241 
5 93.067 
6 81.4386 
7 113.904 
8 89.4538 
9 69.5635 
10 44.4086 
ITEM: TIMESTEP
51600
ITEM: NUMBER OF ENTRIES
10
ITEM: BOX BOUNDS pp pp pp
-1.0000000000000000e+01 1.0000000000000000e+01
-1.0000000000000000e+01 1.0000000000000000e+01
-1.0000000000000000e+01 1.0000000000000000e+01
ITEM: ENTRIES index c_angles
1 20.091 
2 102.968 
3 88.4416 
4 102.524 
5 99.6531 
6 77.8962 
7 105.757 
8 82.7652 
9 76.6844 
10 36.5201 
ITEM: TIMESTEP
51700
ITEM: NUMBER OF ENTRIES
10
ITEM: BOX BOUNDS pp pp pp
-1.0000000000000000e+01 1.0000000000000000e+01
-1.0000000000000000e+01 1.0000000000000000e+01
-1.0000000000000000e+01 1.0000000000000000e+01
ITEM: ENTRIES index c_angles
1 34.5254 
2 106.476 
3 97.9438 
4 85.6964 
5 111.699 
6 72.7243 
7 98.6783 
8 79.0208 
9 86.6788 
10 31.0303 
ITEM: TIMESTEP
51800
ITEM: NUMBER OF ENTRIES
10
ITEM: BOX BOUNDS pp pp pp
-1.0000000000000000e+01 1.0000000000000000e+01
-1.0000000000000000e+01 1.0000000000000000e+01
-1.0000000000000000e+01 1.0000000000000000e+01
ITEM: ENTRIES index c_angles
1 50.8743 
2 112.885 
3 113.518 
4 66.8475 
5 125.92 
6 69.3618 
7 99.5289 
8 78.8102 
9 98.1183 
10 27.2896 
ITEM: TIMESTEP
51900
ITEM: NUMBER OF ENTRIES
10
ITEM: BOX BOUNDS pp pp pp
-1.0000000000000000e+01 1.0000000000000000e+01
-1.0000000000000000e+01 1.0000000000000000e+01
-1.0000000000000000e+01 1.0000000000000000e+01
ITEM: ENTRIES index c_angles
1 58.1308 
2 117.463 
3 132.836 
4 53.2115 
5 139.654 
6 66.9666 
7 106.611 
8 82.3019 
9 103.382 
10 20.7238 
ITEM: TIMESTEP
52000
ITEM: NUMBER OF ENTRIES
10
ITEM: BOX BOUNDS pp pp pp
-1.0000000000000000e+01 1.0000000000000000e+01
-1.0000000000000000e+01 1.0000000000000000e+01
-1.0000000000000000e+01 1.0000000000000000e+01
ITEM: ENTRIES index c_angles
1 60.6624 
2 121.348 
3 152.827 
4 43.5596 
5 150.789 
6 65.1463 
7 114.554 
8 92.8047 
9 96.9097 
10 13.5083 
ITEM: TIMESTEP
52100
ITEM: NUMBER OF ENTRIES
10
ITEM: BOX BOUNDS pp pp pp
-1.0000000000000000e+01 1.0000000000000000e+01
-1.0000000000000000e+01 1.0000000000000000e+01
-1.0000000000000000e+01 1.0000000000000000e+01
ITEM: ENTRIES index c_angles
1 63.2196 
2 119.965 
3 174.613 
4 38.8028 
5 162.687 
6 63.1195 
7 120.665 
8 102.181 
9 83.4001 
10 11.0785 
ITEM: TIMESTEP
52200
ITEM: NUMBER OF ENTRIES
10
ITEM: BOX BOUNDS pp pp pp
-1.0000000000000000e+01 1.0000000000000000e+01
-1.0000000000000000e+01 1.0000000000000000e+01
-1.0000000000000000e+01 1.0000000000000000e+01
ITEM: ENTRIES index c_angles
1 67.9142 
2 115.162 
3 124.187 
4 165.156 
5 36.7808 
6 170.037 
7 65.3468 
8 111.832 
9 76.1621 
10 13.7888 
ITEM: TIMESTEP
52300
ITEM: NUMBER OF ENTRIES
10
ITEM: BOX BOUNDS pp pp pp
-1.0000000000000000e+01 1.0000000000000000e+01
-1.0000000000000000e+01 1.0000000000000000e+01
-1.0000000000000000e+01 1.0000000000000000e+01
ITEM: ENTRIES index c_angles
1 75.3959 
2 112.166 
3 120.982 
4 155.069 
5 35.4897 
6 172.406 
7 70.352 
8 117.259 
9 75.7275 
10 15.8717 
ITEM: TIMESTEP
52400
ITEM: NUMBER OF ENTRIES
10
ITEM: BOX BOUNDS pp pp pp
-1.0000000000000000e+01 1.0000000000000000e+01
-1.0000000000000000e+01 1.0000000000000000e+01
-1.0000000000000000e+01 1.0000000000000000e+01
ITEM: ENTRIES index c_angles
1 81.9242 
2 103.961 
3 119.782 
4 147.045 
5 33.395 
6 168.049 
7 81.4682 
8 124.594 
9 83.114 
10 22.9184 
ITEM: TIMESTEP
52500
ITEM: NUMBER OF ENTRIES
10
ITEM: BOX BOUNDS pp pp pp
-1.0000000000000000e+01 1.0000000000000000e+01
-1.0000000000000000e+01 1.0000000000000000e+01
-1.0000000000000000e+01 1.0000000000000000e+01
ITEM: ENTRIES index c_angles
1 95.0321 
2 90.8411 
3 114.964 
4 148.843 
5 31.1911 
6 160.267 
7 94.7423 
8 126.714 
9 96.7664 
10 28.6605 
ITEM: TIMESTEP
52600
ITEM: NUMBER OF ENTRIES
10
ITEM: BOX BOUNDS pp pp pp
-1.0000000000000000e+01 1.0000000000000000e+01
-1.0000000000000000e+01 1.0000000000000000e+01
-1.0000000000000000e+01 1.0000000000000000e+01
ITEM: ENTRIES index c_angles
1 108.246 
2 72.7726 
3 109.145 
4 156.921 
5 29.3596 
6 156.854 
7 105.711 
8 123.061 
9 103.891 
10 27.3724 
ITEM: TIMESTEP
52700
ITEM: NUMBER OF ENTRIES
10
ITEM: BOX BOUNDS pp pp pp
-1.0000000000000000e+01 1.0000000000000000e+01
-1.0000000000000000e+01 1.0000000000000000e+01
-1.0000000000000000e+01 1.0000000000000000e+01
ITEM: ENTRIES index c_angles
1 109.75 
2 55.4887 
3 103.81 
4 163.778 
5 29.0562 
6 159.361 
7 108.901 
8 114.199 
9 100.65 
10 20.8068 
ITEM: TIMESTEP
52800
ITEM: NUMBER OF ENTRIES
10
ITEM: BOX BOUNDS pp pp pp
-1.0000000000000000e+01 1.0000000000000000e+01
-1.0000000000000000e+01 1.0000000000000000e+01
-1.0000000000000000e+01 1.0000000000000000e+01
ITEM: ENTRIES index c_angles
1 109.516 
2 41.5585 
3 103.324 
4 167.357 
5 34.6051 
6 160.678 
7 106.081 
8 101.936 
9 87.4343 
10 15.6191 
ITEM: TIMESTEP
52900
ITEM: NUMBER OF ENTRIES
10
ITEM: BOX BOUNDS pp pp pp
-1.0000000000000000e+01 1.0000000000000000e+01
-1.0000000000000000e+01 1.0000000000000000e+01
-1.0000000000000000e+01 1.0000000000000000e+01
ITEM: ENTRIES index c_angles
1 114.197 
2 29.3409 
3 101.561 
4 156.698 
5 37.2451 
6 158.68 
7 96.7755 
8 89.6583 
9 70.5119 
10 10.7955 
ITEM: TIMESTEP
53000
ITEM: NUMBER OF ENTRIES
10
ITEM: BOX BOUNDS pp pp pp
-1.0000000000000000e+01 1.0000000000000000e+01
-1.0000000000000000e+01 1.0000000000000000e+01
-1.0000000000000000e+01 1.0000000000000000e+01
ITEM: ENTRIES index c_angles
1 116.996 
2 14.9566 
3 104.836 
4 148.593 
5 38.8854 
6 151.273 
7 90.804 
8 80.5732 
9 55.7975 
10 4.78924 
ITEM: TIMESTEP
53100
ITEM: NUMBER OF ENTRIES
10
ITEM: BOX BOUNDS pp pp pp
-1.0000000000000000e+01 1.0000000000000000e+01
-1.0000000000000000e+01 1.0000000000000000e+01
-1.0000000000000000e+01 1.0000000000000000e+01
ITEM: ENTRIES index c_angles
1 118.76 
2 13.2683 
3 150.399 
4 99.0904 
5 83.8127 
6 39.6378 
7 148.973 
8 47.1874 
9 78.6972 
10 5.53061 
ITEM: TIMESTEP
53200
ITEM: NUMBER OF ENTRIES
10
ITEM: BOX BOUNDS pp pp pp
-1.0000000000000000e+01 1.0000000000000000e+01
-1.0000000000000000e+01 1.0000000000000000e+01
-1.0000000000000000e+01 1.0000000000000000e+01
ITEM: ENTRIES index c_angles
1 116.748 
2 22.968 
3 153.198 
4 85.1095 
5 74.8092 
6 39.5163 
7 143.256 
8 39.3543 
9 81.4387 
10 16.0915 
ITEM: TIMESTEP
53300
ITEM: NUMBER OF ENTRIES
10
ITEM: BOX BOUNDS pp pp pp
-1.0000000000000000e+01 1.0000000000000000e+01
-1.0000000000000000e+01 1.0000000000000000e+01
-1.0000000000000000e+01 1.0000000000000000e+01
ITEM: ENTRIES index c_angles
1 113.706 
2 31.7926 
3 150.953 
4 75.2952 
5 68.1173 
6 40.6497 
7 140.483 
8 34.0567 
9 83.2021 
10 25.6945 
ITEM: TIMESTEP
53400
ITEM: NUMBER OF ENTRIES
10
ITEM: BOX BOUNDS pp pp pp
-1.0000000000000000e+01 1.0000000000000000e+01
-1.0000000000000000e+01 1.0000000000000000e+01
-1.0000000000000000e+01 1.0000000000000000e+01
ITEM: ENTRIES index c_angles
1 109.8 
2 42.89 
3 149.726 
4 66.8743 
5 63.8553 
6 43.8093 
7 139.51 
8 30.4259 
9 82.841 
10 33.6068 
ITEM: TIMESTEP
53500
ITEM: NUMBER OF ENTRIES
10
ITEM: BOX BOUNDS pp pp pp
-1.0000000000000000e+01 1.0000000000000000e+01
-1.0000000000000000e+01 1.0000000000000000e+01
-1.0000000000000000e+01 1.0000000000000000e+01
ITEM: ENTRIES index c_angles
1 99.386 
2 60.7662 
3 150.403 
4 61.9153 
5 57.8348 
6 44.778 
7 138.107 
8 25.6883 
9 81.1592 
10 43.0482 
ITEM: TIMESTEP
53600
ITEM: NUMBER OF ENTRIES
10
ITEM: BOX BOUNDS pp pp pp
-1.0000000000000000e+01 1.0000000000000000e+01
-1.0000000000000000e+01 1.0000000000000000e+01
-1.0000000000000000e+01 1.0000000000000000e+01
ITEM: ENTRIES index c_angles
1 86.1596 
2 68.3909 
3 156.861 
4 59.1128 
5 48.5925 
6 46.2898 
7 133.644 
8 25.054 
9 82.866 
10 50.1326 
ITEM: TIMESTEP
53700
ITEM: NUMBER OF ENTRIES
10
ITEM: BOX BOUNDS pp pp pp
-1.0000000000000000e+01 1.0000000000000000e+01
-1.0000000000000000e+01 1.0000000000000000e+01
-1.0000000000000000e+01 1.0000000000000000e+01
ITEM: ENTRIES index c_angles
1 74.5066 
2 67.4037 
3 163.993 
4 56.0065 
5 38.9475 
6 51.3855 
7 128.658 
8 28.7494 
9 85.4661 
10 55.5526 
ITEM: TIMESTEP
53800
ITEM: NUMBER OF ENTRIES
10
ITEM: BOX BOUNDS pp pp pp
-1.0000000000000000e+01 1.0000000000000000e+01
-1.0000000000000000e+01 1.0000000000000000e+01
-1.0000000000000000e+01 1.0000000000000000e+01
ITEM: ENTRIES index c_angles
1 69.9707 
2 63.0563 
3 160.357 
4 54.648 
5 31.4853 
6 60.3075 
7 124.183 
8 27.1427 
9 86.7902 
10 55.5106 
ITEM: TIMESTEP
53900
ITEM: NUMBER OF ENTRIES
10
ITEM: BOX BOUNDS pp pp pp
-1.0000000000000000e+01 1.0000000000000000e+01
-1.0000000000000000e+01 1.0000000000000000e+01
-1.0000000000000000e+01 1.0000000000000000e+01
ITEM: ENTRIES index c_angles
1 70.8138 
2 60.7019 
3 153.3 
4 50.7629 
5 25.8828 
6 69.588 
7 123.243 
8 25.7242 
9 86.507 
10 52.1241 
ITEM: TIMESTEP
54000
ITEM: NUMBER OF ENTRIES
10
ITEM: BOX BOUNDS pp pp pp
-1.0000000000000000e+01 1.0000000000000000e+01
-1.0000000000000000e+01 1.0000000000000000e+01
-1.0000000000000000e+01 1.0000000000000000e+01
ITEM: ENTRIES index c_angles
1 75.8701 
2 59.205 
3 148.685 
4 46.0028 
5 20.8609 
6 74.0185 
7 120.81 
8 31.8908 
9 83.2967 
10 48.516 
ITEM: TIMESTEP
54100
ITEM: NUMBER OF ENTRIES
10
ITEM: BOX BOUNDS pp pp pp
-1.0000000000000000e+01 1.0000000000000000e+01
-1.0000000000000000e+01 1.0000000000000000e+01
-1.0000000000000000e+01 1.0000000000000000e+01
ITEM: ENTRIES index c_angles
1 85.8652 
2 56.0627 
3 145.148 
4 42.6357 
5 15.7421 
6 77.667 
7 123.622 
8 43.2848 
9 78.9537 
10 45.6068 
ITEM: TIMESTEP
54200
ITEM: NUMBER OF ENTRIES
10
ITEM: BOX BOUNDS pp pp pp
-1.0000000000000000e+01 1.0000000000000000e+01
-1.0000000000000000e+01 1.0000000000000000e+01
-1.0000000000000000e+01 1.0000000000000000e+01
ITEM: ENTRIES index c_angles
1 53.5744 
2 36.4489 
3 103.515 
4 141.898 
5 14.8323 
6 77.3616 
7 125.674 
8 74.6837 
9 51.2249 
10 43.9999 
ITEM: TIMESTEP
54300
ITEM: NUMBER OF ENTRIES
10
ITEM: BOX BOUNDS pp pp pp
-1.0000000000000000e+01 1.0000000000000000e+01
-1.0000000000000000e+01 1.0000000000000000e+01
-1.0000000000000000e+01 1.0000000000000000e+01
ITEM: ENTRIES index c_angles
1 63.1805 
2 26.3953 
3 111.544 
4 133.206 
5 26.9348 
6 81.4392 
7 129.792 
8 72.0797 
9 58.3845 
10 44.5848 
ITEM: TIMESTEP
54400
ITEM: NUMBER OF ENTRIES
10
ITEM: BOX BOUNDS pp pp pp
-1.0000000000000000e+01 1.0000000000000000e+01
-1.0000000000000000e+01 1.0000000000000000e+01
-1.0000000000000000e+01 1.0000000000000000e+01
ITEM: ENTRIES index c_angles
1 76.3955 
2 15.5933 
3 109.932 
4 127.122 
5 41.2635 
6 86.3827 
7 129.159 
8 68.549 
9 63.8918 
10 47.9573 
ITEM: TIMESTEP
54500
ITEM: NUMBER OF ENTRIES
10
ITEM: BOX BOUNDS pp pp pp
-1.0000000000000000e+01 1.0000000000000000e+01
-1.0000000000000000e+01 1.0000000000000000e+01
-1.0000000000000000e+01 1.0000000000000000e+01
ITEM: ENTRIES index c_angles
1 78.7139 
2 5.82661 
3 105.322 
4 120.927 
5 57.7756 
6 84.3068 
7 120.79 
8 66.5218 
9 63.0218 
10 55.2777 
ITEM: TIMESTEP
54600
ITEM: NUMBER OF ENTRIES
10
ITEM: BOX BOUNDS pp pp pp
-1.0000000000000000e+01 1.0000000000000000e+01
-1.0000000000000000e+01 1.0000000000000000e+01
-1.0000000000000000e+01 1.0000000000000000e+01
ITEM: ENTRIES index c_angles
1 76.7489 
2 4.57241 
3 106.897 
4 109.8 
5 71.4351 
6 85.1655 
7 101.243 
8 63.8538 
9 62.1291 
10 69.0431 
ITEM: TIMESTEP
54700
ITEM: NUMBER OF ENTRIES
10
ITEM: BOX BOUNDS pp pp pp
-1.0000000000000000e+01 1.0000000000000000e+01
-1.0000000000000000e+01 1.0000000000000000e+01
-1.0000000000000000e+01 1.0000000000000000e+01
ITEM: ENTRIES index c_angles
1 72.3667 
2 9.01857 
3 107.394 
4 82.9545 
5 89.0125 
6 86.0056 
7 78.2878 
8 60.5419 
9 65.7214 
10 87.8811 
ITEM: TIMESTEP
54800
ITEM: NUMBER OF ENTRIES
10
ITEM: BOX BOUNDS pp pp pp
-1.0000000000000000e+01 1.0000000000000000e+01
-1.0000000000000000e+01 1.0000000000000000e+01
-1.0000000000000000e+01 1.0000000000000000e+01
ITEM: ENTRIES index c_angles
1 60.0189 
2 15.9423 
3 100.537 
4 66.568 
5 110.318 
6 93.926 
7 66.8827 
8 60.2893 
9 70.0706 
10 95.7261 
ITEM: TIMESTEP
54900
ITEM: NUMBER OF ENTRIES
10
ITEM: BOX BOUNDS pp pp pp
-1.0000000000000000e+01 1.0000000000000000e+01
-1.0000000000000000e+01 1.0000000000000000e+01
-1.0000000000000000e+01 1.0000000000000000e+01
ITEM: ENTRIES index c_angles
1 50.6203 
2 22.5268 
3 91.4395 
4 63.4581 
5 126.277 
6 109.893 
7 61.5284 
8 58.0923 
9 76.9099 
10 92.8516 
ITEM: TIMESTEP
55000
ITEM: NUMBER OF ENTRIES
10
ITEM: BOX BOUNDS pp pp pp
-1.0000000000000000e+01 1.0000000000000000e+01
-1.0000000000000000e+01 1.0000000000000000e+01
-1.0000000000000000e+01 1.0000000000000000e+01
ITEM: ENTRIES index c_angles
1 51.5751 
2 25.8988 
3 83.0802 
4 63.6186 
5 136.495 
6 131.318 
7 60.102 
8 62.2372 
9 89.0033 
10 84.1463 
ITEM: TIMESTEP
55100
ITEM: NUMBER OF ENTRIES
10
ITEM: BOX BOUNDS pp pp pp
-1.0000000000000000e+01 1.0000000000000000e+01
-1.0000000000000000e+01 1.0000000000000000e+01
-1.0000000000000000e+01 1.0000000000000000e+01
ITEM: ENTRIES index c_angles
1 54.5533 
2 28.785 
3 74.7752 
4 67.503 
5 144.045 
6 153.141 
7 67.0069 
8 68.9666 
9 102.39 
10 78.4387 
ITEM: TIMESTEP
55200
ITEM: NUMBER OF ENTRIES
10
ITEM: BOX BOUNDS pp pp pp
-1.0000000000000000e+01 1.0000000000000000e+01
-1.0000000000000000e+01 1.0000000000000000e+01
-1.0000000000000000e+01 1.0000000000000000e+01
ITEM: ENTRIES index c_angles
1 64.8804 
2 75.0294 
3 31.2489 
4 72.0552 
5 167.62 
6 75.397 
7 142.826 
8 87.5705 
9 114.123 
10 76.6994 
ITEM: TIMESTEP
55300
ITEM: NUMBER OF ENTRIES
10
ITEM: BOX BOUNDS pp pp pp
-1.0000000000000000e+01 1.0000000000000000e+01
-1.0000000000000000e+01 1.0000000000000000e+01
-1.0000000000000000e+01 1.0000000000000000e+01
ITEM: ENTRIES index c_angles
1 80.5054 
2 84.0375 
3 29.8743 
4 69.3326 
5 176.008 
6 79.7343 
7 132.962 
8 113.786 
9 125.687 
10 77.117 
ITEM: TIMESTEP
55400
ITEM: NUMBER OF ENTRIES
10
ITEM: BOX BOUNDS pp pp pp
-1.0000000000000000e+01 1.0000000000000000e+01
-1.0000000000000000e+01 1.0000000000000000e+01
-1.0000000000000000e+01 1.0000000000000000e+01
ITEM: ENTRIES index c_angles
1 98.3984 
2 94.7937 
3 31.5413 
4 67.4223 
5 174.407 
6 83.1065 
7 126.158 
8 131.315 
9 129.005 
10 79.7972 
ITEM: TIMESTEP
55500
ITEM: NUMBER OF ENTRIES
10
ITEM: BOX BOUNDS pp pp pp
-1.0000000000000000e+01 1.0000000000000000e+01
-1.0000000000000000e+01 1.0000000000000000e+01
-1.0000000000000000e+01 1.0000000000000000e+01
ITEM: ENTRIES index c_angles
1 106.64 
2 105.709 
3 30.3636 
4 64.8012 
5 176.638 
6 89.9227 
7 120.199 
8 135.487 
9 128.12 
10 88.1716 
ITEM: TIMESTEP
55600
ITEM: NUMBER OF ENTRIES
10
ITEM: BOX BOUNDS pp pp pp
-1.0000000000000000e+01 1.0000000000000000e+01
-1.0000000000000000e+01 1.0000000000000000e+01
-1.0000000000000000e+01 1.0000000000000000e+01
ITEM: ENTRIES index c_angles
1 111.884 
2 108.974 
3 28.0461 
4 60.5189 
5 175.958 
6 99.3573 
7 116.025 
8 127.662 
9 123.31 
10 104.122 
ITEM: TIMESTEP
55700
ITEM: NUMBER OF ENTRIES
10
ITEM: BOX BOUNDS pp pp pp
-1.0000000000000000e+01 1.0000000000000000e+01
-1.0000000000000000e+01 1.0000000000000000e+01
-1.0000000000000000e+01 1.0000000000000000e+01
ITEM: ENTRIES index c_angles
1 109.455 
2 109.671 
3 26.2295 
4 58.2824 
5 166.438 
6 110.672 
7 111.468 
8 120.49 
9 112.157 
10 111.335 
ITEM: TIMESTEP
55800
ITEM: NUMBER OF ENTRIES
10
ITEM: BOX BOUNDS pp pp pp
-1.0000000000000000e+01 1.0000000000000000e+01
-1.0000000000000000e+01 1.0000000000000000e+01
-1.0000000000000000e+01 1.0000000000000000e+01
ITEM: ENTRIES index c_angles
1 111.733 
2 111.236 
3 23.0347 
4 57.0841 
5 154.527 
6 127.402 
7 113.03 
8 127.337 
9 92.6036 
10 107.173 
ITEM: TIMESTEP
55900
ITEM: NUMBER OF ENTRIES
10
ITEM: BOX BOUNDS pp pp pp
-1.0000000000000000e+01 1.0000000000000000e+01
-1.0000000000000000e+01 1.0000000000000000e+01
-1.0000000000000000e+01 1.0000000000000000e+01
ITEM: ENTRIES index c_angles
1 119.74 
2 110.57 
3 19.1026 
4 57.7007 
5 144.404 
6 152.984 
7 111.629 
8 122.272 
9 71.2843 
10 95.2656 
ITEM: TIMESTEP
56000
ITEM: NUMBER OF ENTRIES
10
ITEM: BOX BOUNDS pp pp pp
-1.0000000000000000e+01 1.0000000000000000e+01
-1.0000000000000000e+01 1.0000000000000000e+01
-1.0000000000000000e+01 1.0000000000000000e+01
ITEM: ENTRIES index c_angles
1 124.681 
2 109.715 
3 20.1913 
4 61.2545 
5 130.686 
6 174.839 
7 112.351 
8 115.985 
9 54.7986 
10 82.6133 
ITEM: TIMESTEP
56100
ITEM: NUMBER OF ENTRIES
10
ITEM: BOX BOUNDS pp pp pp
-1.0000000000000000e+01 1.0000000000000000e+01
-1.0000000000000000e+01 1.0000000000000000e+01
-1.0000000000000000e+01 1.0000000000000000e+01
ITEM: ENTRIES index c_angles
1 134.425 
2 113.47 
3 71.2745 
4 23.0388 
5 114.667 
6 109.753 
7 149.215 
8 109.224 
9 47.6743 
10 74.5092 
ITEM: TIMESTEP
56200
ITEM: NUMBER OF ENTRIES
10
ITEM: BOX BOUNDS pp pp pp
-1.0000000000000000e+01 1.0000000000000000e+01
-1.0000000000000000e+01 1.0000000000000000e+01
-1.0000000000000000e+01 1.0000000000000000e+01
ITEM: ENTRIES index c_angles
1 149.87 
2 113.345 
3 82.5009 
4 27.862 
5 106.379 
6 99.9783 
7 125.418 
8 99.7149 
9 45.2688 
10 72.2136 
ITEM: TIMESTEP
56300
ITEM: NUMBER OF ENTRIES
10
ITEM: BOX BOUNDS pp pp pp
-1.0000000000000000e+01 1.0000000000000000e+01
-1.0000000000000000e+01 1.0000000000000000e+01
-1.0000000000000000e+01 1.0000000000000000e+01
ITEM: ENTRIES index c_angles
1 164.363 
2 107.473 
3 95.0724 
4 35.9777 
5 99.866 
6 88.2857 
7 114.505 
8 93.9755 
9 50.4745 
10 75.0777 
ITEM: TIMESTEP
56400
ITEM: NUMBER OF ENTRIES
10
ITEM: BOX BOUNDS pp pp pp
-1.0000000000000000e+01 1.0000000000000000e+01
-1.0000000000000000e+01 1.0000000000000000e+01
-1.0000000000000000e+01 1.0000000000000000e+01
ITEM: ENTRIES index c_angles
1 172.214 
2 98.3232 
3 106.714 
4 50.0929 
5 87.8074 
6 73.0375 
7 113.697 
8 95.6388 
9 62.0373 
10 86.5236 
ITEM: TIMESTEP
56500
ITEM: NUMBER OF ENTRIES
10
ITEM: BOX BOUNDS pp pp pp
-1.0000000000000000e+01 1.0000000000000000e+01
-1.0000000000000000e+01 1.0000000000000000e+01
-1.0000000000000000e+01 1.0000000000000000e+01
ITEM: ENTRIES index c_angles
1 159.2 
2 90.715 
3 118.717 
4 76.3855 
5 71.2428 
6 62.0928 
7 118.74 
8 102.949 
9 73.127 
10 99.6319 
ITEM: TIMESTEP
56600
ITEM: NUMBER OF ENTRIES
10
ITEM: BOX BOUNDS pp pp pp
-1.0000000000000000e+01 1.0000000000000000e+01
-1.0000000000000000e+01 1.0000000000000000e+01
-1.0000000000000000e+01 1.0000000000000000e+01
ITEM: ENTRIES index c_angles
1 145.174 
2 78.3931 
3 128.348 
4 106.74 
5 54.971 
6 57.5515 
7 126.037 
8 109.08 
9 89.4707 
10 107.258 
ITEM: TIMESTEP
56700
ITEM: NUMBER OF ENTRIES
10
ITEM: BOX BOUNDS pp pp pp
-1.0000000000000000e+01 1.0000000000000000e+01
-1.0000000000000000e+01 1.0000000000000000e+01
-1.0000000000000000e+01 1.0000000000000000e+01
ITEM: ENTRIES index c_angles
1 136.707 
2 63.5893 
3 131.783 
4 127.945 
5 46.6279 
6 54.9391 
7 129.244 
8 114.061 
9 109.076 
10 103.739 
ITEM: TIMESTEP
56800
ITEM: NUMBER OF ENTRIES
10
ITEM: BOX BOUNDS pp pp pp
-1.0000000000000000e+01 1.0000000000000000e+01
-1.0000000000000000e+01 1.0000000000000000e+01
-1.0000000000000000e+01 1.0000000000000000e+01
ITEM: ENTRIES index c_angles
1 130.855 
2 48.6761 
3 125.328 
4 140.207 
5 42.2575 
6 54.0738 
7 122.075 
8 117.491 
9 127.212 
10 94.1262 
ITEM: TIMESTEP
56900
ITEM: NUMBER OF ENTRIES
10
ITEM: BOX BOUNDS pp pp pp
-1.0000000000000000e+01 1.0000000000000000e+01
-1.0000000000000000e+01 1.0000000000000000e+01
-1.0000000000000000e+01 1.0000000000000000e+01
ITEM: ENTRIES index c_angles
1 123.743 
2 39.4956 
3 117.865 
4 148.913 
5 39.0473 
6 52.1094 
7 108.698 
8 119.414 
9 141.467 
10 90.8552 
ITEM: TIMESTEP
57000
ITEM: NUMBER OF ENTRIES
10
ITEM: BOX BOUNDS pp pp pp
-1.0000000000000000e+01 1.0000000000000000e+01
-1.0000000000000000e+01 1.0000000000000000e+01
-1.0000000000000000e+01 1.0000000000000000e+01
ITEM: ENTRIES index c_angles
1 110.852 
2 37.6313 
3 111.648 
4 152.941 
5 42.4235 
6 49.891 
7 99.2036 
8 123.189 
9 146.001 
10 86.6076 
ITEM: TIMESTEP
57100
ITEM: NUMBER OF ENTRIES
10
ITEM: BOX BOUNDS pp pp pp
-1.0000000000000000e+01 1.0000000000000000e+01
-1.0000000000000000e+01 1.0000000000000000e+01
-1.0000000000000000e+01 1.0000000000000000e+01
ITEM: ENTRIES index c_angles
1 101.914 
2 41.6646 
3 95.975 
4 164.223 
5 48.9566 
6 46.5493 
7 93.7519 
8 130.45 
9 142.336 
10 63.6384 
ITEM: TIMESTEP
57200
ITEM: NUMBER OF ENTRIES
10
ITEM: BOX BOUNDS pp pp pp
-1.0000000000000000e+01 1.0000000000000000e+01
-1.0000000000000000e+01 1.0000000000000000e+01
-1.0000000000000000e+01 1.0000000000000000e+01
ITEM: ENTRIES index c_angles
1 93.5454 
2 46.1764 
3 170.028 
4 81.8521 
5 48.7679 
6 56.6742 
7 88.6155 
8 137.061 
9 136.137 
10 39.7096 
ITEM: TIMESTEP
57300
ITEM: NUMBER OF ENTRIES
10
ITEM: BOX BOUNDS pp pp pp
-1.0000000000000000e+01 1.0000000000000000e+01
-1.0000000000000000e+01 1.0000000000000000e+01
-1.0000000000000000e+01 1.0000000000000000e+01
ITEM: ENTRIES index c_angles
1 89.0463 
2 54.7021 
3 163.518 
4 71.8417 
5 49.6466 
6 66.6671 
7 83.3786 
8 142.643 
9 124.592 
10 21.7997 
ITEM: TIMESTEP
57400
ITEM: NUMBER OF ENTRIES
10
ITEM: BOX BOUNDS pp pp pp
-1.0000000000000000e+01 1.0000000000000000e+01
-1.0000000000000000e+01 1.0000000000000000e+01
-1.0000000000000000e+01 1.0000000000000000e+01
ITEM: ENTRIES index c_angles
1 83.3097 
2 54.6915 
3 143.7 
4 65.743 
5 49.9844 
6 83.6457 
7 71.7271 
8 149.834 
9 111.361 
10 14.0601 
ITEM: TIMESTEP
57500
ITEM: NUMBER OF ENTRIES
10
ITEM: BOX BOUNDS pp pp pp
-1.0000000000000000e+01 1.0000000000000000e+01
-1.0000000000000000e+01 1.0000000000000000e+01
-1.0000000000000000e+01 1.0000000000000000e+01
ITEM: ENTRIES index c_angles
1 73.4199 
2 45.5214 
3 124.327 
4 58.2157 
5 46.0889 
6 81.6459 
7 58.5436 
8 155.368 
9 98.236 
10 10.4507 
ITEM: TIMESTEP
57600
ITEM: NUMBER OF ENTRIES
10
ITEM: BOX BOUNDS pp pp pp
-1.0000000000000000e+01 1.0000000000000000e+01
-1.0000000000000000e+01 1.0000000000000000e+01
-1.0000000000000000e+01 1.0000000000000000e+01
ITEM: ENTRIES index c_angles
1 63.9228 
2 36.7216 
3 108.471 
4 53.2751 
5 38.4905 
6 65.2001 
7 52.7881 
8 162.96 
9 89.2648 
10 18.4347 
ITEM: TIMESTEP
57700
ITEM: NUMBER OF ENTRIES
10
ITEM: BOX BOUNDS pp pp pp
-1.0000000000000000e+01 1.0000000000000000e+01
-1.0000000000000000e+01 1.0000000000000000e+01
-1.0000000000000000e+01 1.0000000000000000e+01
ITEM: ENTRIES index c_angles
1 58.6939 
2 29.5312 
3 97.518 
4 50.4517 
5 30.4166 
6 50.3974 
7 53.0538 
8 168.287 
9 88.2022 
10 31.5913 
ITEM: TIMESTEP
57800
ITEM: NUMBER OF ENTRIES
10
ITEM: BOX BOUNDS pp pp pp
-1.0000000000000000e+01 1.0000000000000000e+01
-1.0000000000000000e+01 1.0000000000000000e+01
-1.0000000000000000e+01 1.0000000000000000e+01
ITEM: ENTRIES index c_angles
1 54.8591 
2 26.454 
3 88.1909 
4 39.1681 
5 20.4369 
6 44.2541 
7 50.7498 
8 170.416 
9 90.0596 
10 41.6014 
ITEM: TIMESTEP
57900
ITEM: NUMBER OF ENTRIES
10
ITEM: BOX BOUNDS pp pp pp
-1.0000000000000000e+01 1.0000000000000000e+01
-1.0000000000000000e+01 1.0000000000000000e+01
-1.0000000000000000e+01 1.0000000000000000e+01
ITEM: ENTRIES index c_angles
1 54.0398 
2 23.7865 
3 77.5324 
4 19.3758 
5 12.8569 
6 41.6988 
7 48.163 
8 163.585 
9 92.9615 
10 45.7172 
ITEM: TIMESTEP
58000
ITEM: NUMBER OF ENTRIES
10
ITEM: BOX BOUNDS pp pp pp
-1.0000000000000000e+01 1.0000000000000000e+01
-1.0000000000000000e+01 1.0000000000000000e+01
-1.0000000000000000e+01 1.0000000000000000e+01
ITEM: ENTRIES index c_angles
1 54.7428 
2 22.5308 
3 65.702 
4 4.93405 
5 13.9616 
6 42.1274 
7 46.5586 
8 147.903 
9 99.8238 
10 44.94 
ITEM: TIMESTEP
58100
ITEM: NUMBER OF ENTRIES
10
ITEM: BOX BOUNDS pp pp pp
-1.0000000000000000e+01 1.0000000000000000e+01
-1.0000000000000000e+01 1.0000000000000000e+01
-1.0000000000000000e+01 1.0000000000000000e+01
ITEM: ENTRIES index c_angles
1 61.2128 
2 22.7006 
3 59.3738 
4 3.76665 
5 20.2079 
6 49.5632 
7 44.5374 
8 131.211 
9 105.853 
10 39.0062 
ITEM: TIMESTEP
58200
ITEM: NUMBER OF ENTRIES
10
ITEM: BOX BOUNDS pp pp pp
-1.0000000000000000e+01 1.0000000000000000e+01
-1.0000000000000000e+01 1.0000000000000000e+01
-1.0000000000000000e+01 1.0000000000000000e+01
ITEM: ENTRIES index c_angles
1 70.2927 
2 7.32766 
3 56.5047 
4 23.9991 
5 28.9578 
6 70.3395 
7 45.0213 
8 120.613 
9 114.148 
10 34.8436 
ITEM: TIMESTEP
58300
ITEM: NUMBER OF ENTRIES
10
ITEM: BOX BOUNDS pp pp pp
-1.0000000000000000e+01 1.0000000000000000e+01
-1.0000000000000000e+01 1.0000000000000000e+01
-1.0000000000000000e+01 1.0000000000000000e+01
ITEM: ENTRIES index c_angles
1 79.8124 
2 14.1361 
3 58.2298 
4 34.6792 
5 41.2905 
6 112.168 
7 43.1152 
8 118.233 
9 125.235 
10 30.1645 
ITEM: TIMESTEP
58400
ITEM: NUMBER OF ENTRIES
10
ITEM: BOX BOUNDS pp pp pp
-1.0000000000000000e+01 1.0000000000000000e+01
-1.0000000000000000e+01 1.0000000000000000e+01
-1.0000000000000000e+01 1.0000000000000000e+01
ITEM: ENTRIES index c_angles
1 88.9764 
2 26.335 
3 63.1456 
4 57.9297 
5 52.8829 
6 153.441 
7 39.8014 
8 110.749 
9 130.698 
10 22.8027 
ITEM: TIMESTEP
58500
ITEM: NUMBER OF ENTRIES
10
ITEM: BOX BOUNDS pp pp pp
-1.0000000000000000e+01 1.0000000000000000e+01
-1.0000000000000000e+01 1.0000000000000000e+01
-1.0000000000000000e+01 1.0000000000000000e+01
ITEM: ENTRIES index c_angles
1 92.8423 
2 42.5296 
3 68.15 
4 76.331 
5 58.5277 
6 164.071 
7 42.0457 
8 107.254 
9 133.221 
10 18.9564 
ITEM: TIMESTEP
58600
ITEM: NUMBER OF ENTRIES
10
ITEM: BOX BOUNDS pp pp pp
-1.0000000000000000e+01 1.0000000000000000e+01
-1.0000000000000000e+01 1.0000000000000000e+01
-1.0000000000000000e+01 1.0000000000000000e+01
ITEM: ENTRIES index c_angles
1 94.2849 
2 47.6727 
3 68.1852 
4 80.699 
5 61.1 
6 135.467 
7 48.9694 
8 102.347 
9 140.773 
10 15.3823 
ITEM: TIMESTEP
58700
ITEM: NUMBER OF ENTRIES
10
ITEM: BOX BOUNDS pp pp pp
-1.0000000000000000e+01 1.0000000000000000e+01
-1.0000000000000000e+01 1.0000000000000000e+01
-1.0000000000000000e+01 1.0000000000000000e+01
ITEM: ENTRIES index c_angles
1 85.7364 
2 37.8061 
3 69.1386 
4 81.4378 
5 64.2953 
6 112.208 
7 59.0494 
8 96.8231 
9 149.222 
10 14.0538 
ITEM: TIMESTEP
58800
ITEM: NUMBER OF ENTRIES
10
ITEM: BOX BOUNDS pp pp pp
-1.0000000000000000e+01 1.0000000000000000e+01
-1.0000000000000000e+01 1.0000000000000000e+01
-1.0000000000000000e+01 1.0000000000000000e+01
ITEM: ENTRIES index c_angles
1 73.8949 
2 20.9446 
3 67.7619 
4 81.2111 
5 69.0713 
6 92.1213 
7 72.1156 
8 97.9433 
9 155.446 
10 15.1662 
ITEM: TIMESTEP
58900
ITEM: NUMBER OF ENTRIES
10
ITEM: BOX BOUNDS pp pp pp
-1.0000000000000000e+01 1.0000000000000000e+01
-1.0000000000000000e+01 1.0000000000000000e+01
-1.0000000000000000e+01 1.0000000000000000e+01
ITEM: ENTRIES index c_angles
1 67.4116 
2 8.75391 
3 61.4697 
4 83.2944 
5 72.5659 
6 80.0868 
7 84.5656 
8 100.546 
9 151.452 
10 17.0759 
ITEM: TIMESTEP
59000
ITEM: NUMBER OF ENTRIES
10
ITEM: BOX BOUNDS pp pp pp
-1.0000000000000000e+01 1.0000000000000000e+01
-1.0000000000000000e+01 1.0000000000000000e+01
-1.0000000000000000e+01 1.0000000000000000e+01
ITEM: ENTRIES index c_angles
1 65.5749 
2 3.75633 
3 58.4034 
4 88.2497 
5 73.8837 
6 69.2475 
7 99.6322 
8 102.696 
9 133.81 
10 21.857 
ITEM: TIMESTEP
59100
ITEM: NUMBER OF ENTRIES
10
ITEM: BOX BOUNDS pp pp pp
-1.0000000000000000e+01 1.0000000000000000e+01
-1.0000000000000000e+01 1.0000000000000000e+01
-1.0000000000000000e+01 1.0000000000000000e+01
ITEM: ENTRIES index c_angles
1 66.4626 
2 9.35339 
3 93.1645 
4 58.5281 
5 63.2607 
6 73.7086 
7 118.444 
8 95.18 
9 109.05 
10 26.8677 
ITEM: TIMESTEP
59200
ITEM: NUMBER OF ENTRIES
10
ITEM: BOX BOUNDS pp pp pp
-1.0000000000000000e+01 1.0000000000000000e+01
-1.0000000000000000e+01 1.0000000000000000e+01
-1.0000000000000000e+01 1.0000000000000000e+01
ITEM: ENTRIES index c_angles
1 68.0909 
2 14.4321 
3 98.2452 
4 48.1682 
5 68.8375 
6 73.2081 
7 135.922 
8 80.0899 
9 85.0459 
10 30.8406 
ITEM: TIMESTEP
59300
ITEM: NUMBER OF ENTRIES
10
ITEM: BOX BOUNDS pp pp pp
-1.0000000000000000e+01 1.0000000000000000e+01
-1.0000000000000000e+01 1.0000000000000000e+01
-1.0000000000000000e+01 1.0000000000000000e+01
ITEM: ENTRIES index c_angles
1 70.631 
2 14.8642 
3 94.3562 
4 44.1173 
5 77.2654 
6 67.4327 
7 153.921 
8 67.2988 
9 68.7906 
10 31.9139 
ITEM: TIMESTEP
59400
ITEM: NUMBER OF ENTRIES
10
ITEM: BOX BOUNDS pp pp pp
-1.0000000000000000e+01 1.0000000000000000e+01
-1.0000000000000000e+01 1.0000000000000000e+01
-1.0000000000000000e+01 1.0000000000000000e+01
ITEM: ENTRIES index c_angles
1 73.1781 
2 14.6328 
3 85.7833 
4 45.0949 
5 92.0204 
6 65.867 
7 165.764 
8 58.309 
9 55.5118 
10 31.9219 
ITEM: TIMESTEP
59500
ITEM: NUMBER OF ENTRIES
10
ITEM: BOX BOUNDS pp pp pp
-1.0000000000000000e+01 1.0000000000000000e+01
-1.0000000000000000e+01 1.0000000000000000e+01
-1.0000000000000000e+01 1.0000000000000000e+01
ITEM: ENTRIES index c_angles
1 74.3392 
2 12.3043 
3 76.5958 
4 54.0063 
5 101.252 
6 63.6702 
7 172.563 
8 51.7122 
9 46.6962 
10 34.9979 
ITEM: TIMESTEP
59600
ITEM: NUMBER OF ENTRIES
10
ITEM: BOX BOUNDS pp pp pp
-1.0000000000000000e+01 1.0000000000000000e+01
-1.0000000000000000e+01 1.0000000000000000e+01
-1.0000000000000000e+01 1.0000000000000000e+01
ITEM: ENTRIES index c_angles
1 66.2612 
2 10.166 
3 67.5489 
4 59.0053 
5 107.197 
6 61.9027 
7 166.334 
8 47.8452 
9 38.6734 
10 39.7694 
ITEM: TIMESTEP
59700
ITEM: NUMBER OF ENTRIES
10
ITEM: BOX BOUNDS pp pp pp
-1.0000000000000000e+01 1.0000000000000000e+01
-1.0000000000000000e+01 1.0000000000000000e+01
-1.0000000000000000e+01 1.0000000000000000e+01
ITEM: ENTRIES index c_angles
1 55.7222 
2 8.74981 
3 60.6125 
4 69.9255 
5 107.075 
6 57.7823 
7 164.962 
8 46.5186 
9 29.9134 
10 44.1663 
ITEM: TIMESTEP
59800
ITEM: NUMBER OF ENTRIES
10
ITEM: BOX BOUNDS pp pp pp
-1.0000000000000000e+01 1.0000000000000000e+01
-1.0000000000000000e+01 1.0000000000000000e+01
-1.0000000000000000e+01 1.0000000000000000e+01
ITEM: ENTRIES index c_angles
1 46.1846 
2 8.84774 
3 56.3838 
4 82.1268 
5 107.363 
6 52.7046 
7 160.205 
8 47.4383 
9 20.9336 
10 49.7684 
ITEM: TIMESTEP
59900
ITEM: NUMBER OF ENTRIES
10
ITEM: BOX BOUNDS pp pp pp
-1.0000000000000000e+01 1.0000000000000000e+01
-1.0000000000000000e+01 1.0000000000000000e+01
-1.0000000000000000e+01 1.0000000000000000e+01
ITEM: ENTRIES index c_angles
1 38.2853 
2 15.1196 
3 59.0938 
4 86.9378 
5 105.502 
6 53.1452 
7 151.431 
8 48.4794 
9 10.9834 
10 52.258 
ITEM: TIMESTEP
60000
ITEM: NUMBER OF ENTRIES
10
ITEM: BOX BOUNDS pp pp pp
-1.0000000000000000e+01 1.0000000000000000e+01
-1.0000000000000000e+01 1.0000000000000000e+01
-1.0000000000000000e+01 1.0000000000000000e+01
ITEM: ENTRIES index c_angles
1 29.6689 
2 23.0138 
3 63.8402 
4 92.5785 
5 107.77 
6 52.3892 
7 145.292 
8 52.9908 
9 9.46182 
10 46.6504 
ITEM: TIMESTEP
60100
ITEM: NUMBER OF ENTRIES
10
ITEM: BOX BOUNDS pp pp pp
-1.0000000000000000e+01 1.0000000000000000e+01
-1.0000000000000000e+01 1.0000000000000000e+01
-1.0000000000000000e+01 1.0000000000000000e+01
ITEM: ENTRIES index c_angles
1 32.7187 
2 68.7138 
3 90.2691 
4 24.5459 
5 116.137 
6 139.201 
7 54.6665 
8 59.3264 
9 48.0549 
10 29.7831 
ITEM: TIMESTEP
60200
ITEM: NUMBER OF ENTRIES
10
ITEM: BOX BOUNDS pp pp pp
-1.0000000000000000e+01 1.0000000000000000e+01
-1.0000000000000000e+01 1.0000000000000000e+01
-1.0000000000000000e+01 1.0000000000000000e+01
ITEM: ENTRIES index c_angles
1 40.9221 
2 66.5582 
3 86.8452 
4 24.1129 
5 125.982 
6 136.478 
7 59.199 
8 61.5232 
9 47.9922 
10 48.0425 
ITEM: TIMESTEP
60300
ITEM: NUMBER OF ENTRIES
10
ITEM: BOX BOUNDS pp pp pp
-1.0000000000000000e+01 1.0000000000000000e+01
-1.0000000000000000e+01 1.0000000000000000e+01
-1.0000000000000000e+01 1.0000000000000000e+01
ITEM: ENTRIES index c_angles
1 43.6051 
2 63.8754 
3 86.1203 
4 23.9932 
5 128.038 
6 133.032 
7 64.5822 
8 61.7267 
9 46.1891 
10 65.5663 
ITEM: TIMESTEP
60400
ITEM: NUMBER OF ENTRIES
10
ITEM: BOX BOUNDS pp pp pp
-1.0000000000000000e+01 1.0000000000000000e+01
-1.0000000000000000e+01 1.0000000000000000e+01
-1.0000000000000000e+01 1.0000000000000000e+01
ITEM: ENTRIES index c_angles
1 42.8613 
2 59.1774 
3 82.5807 
4 22.2326 
5 119.428 
6 129.254 
7 70.5442 
8 61.7111 
9 45.3082 
10 79.7511 
ITEM: TIMESTEP
60500
ITEM: NUMBER OF ENTRIES
10
ITEM: BOX BOUNDS pp pp pp
-1.0000000000000000e+01 1.0000000000000000e+01
-1.0000000000000000e+01 1.0000000000000000e+01
-1.0000000000000000e+01 1.0000000000000000e+01
ITEM: ENTRIES index c_angles
1 45.6259 
2 59.3803 
3 76.8784 
4 13.7907 
5 109.385 
6 129.802 
7 76.359 
8 55.4894 
9 48.3578 
10 91.8779 
ITEM: TIMESTEP
60600
ITEM: NUMBER OF ENTRIES
10
ITEM: BOX BOUNDS pp pp pp
-1.0000000000000000e+01 1.0000000000000000e+01
-1.0000000000000000e+01 1.0000000000000000e+01
-1.0000000000000000e+01 1.0000000000000000e+01
ITEM: ENTRIES index c_angles
1 49.4374 
2 57.7315 
3 72.2296 
4 6.57644 
5 101.997 
6 130.8 
7 71.6688 
8 47.0222 
9 53.8691 
10 104.291 
ITEM: TIMESTEP
60700
ITEM: NUMBER OF ENTRIES
10
ITEM: BOX BOUNDS pp pp pp
-1.0000000000000000e+01 1.0000000000000000e+01
-1.0000000000000000e+01 1.0000000000000000e+01
-1.0000000000000000e+01 1.0000000000000000e+01
ITEM: ENTRIES index c_angles
1 54.482 
2 60.8817 
3 61.2046 
4 0.622108 
5 94.2479 
6 130.612 
7 74.9667 
8 41.5631 
9 55.7186 
10 118.948 
ITEM: TIMESTEP
60800
ITEM: NUMBER OF ENTRIES
10
ITEM: BOX BOUNDS pp pp pp
-1.0000000000000000e+01 1.0000000000000000e+01
-1.0000000000000000e+01 1.0000000000000000e+01
-1.0000000000000000e+01 1.0000000000000000e+01
ITEM: ENTRIES index c_angles
1 50.3889 
2 70.3559 
3 47.6408 
4 4.78437 
5 91.8091 
6 128.719 
7 84.555 
8 32.0164 
9 52.0102 
10 132.588 
ITEM: TIMESTEP
60900
ITEM: NUMBER OF ENTRIES
10
ITEM: BOX BOUNDS pp pp pp
-1.0000000000000000e+01 1.0000000000000000e+01
-1.0000000000000000e+01 1.0000000000000000e+01
-1.0000000000000000e+01 1.0000000000000000e+01
ITEM: ENTRIES index c_angles
1 42.3243 
2 82.8345 
3 42.5045 
4 8.82412 
5 92.8671 
6 123.239 
7 81.227 
8 24.9122 
9 47.1465 
10 150.647 
ITEM: TIMESTEP
61000
ITEM: NUMBER OF ENTRIES
10
ITEM: BOX BOUNDS pp pp pp
-1.0000000000000000e+01 1.0000000000000000e+01
-1.0000000000000000e+01 1.0000000000000000e+01
-1.0000000000000000e+01 1.0000000000000000e+01
ITEM: ENTRIES index c_angles
1 32.7456 
2 98.9374 
3 46.5084 
4 16.4389 
5 94.1089 
6 116.514 
7 73.2363 
8 24.0899 
9 42.5111 
10 161.439 
ITEM: TIMESTEP
61100
ITEM: NUMBER OF ENTRIES
10
ITEM: BOX BOUNDS pp pp pp
-1.0000000000000000e+01 1.0000000000000000e+01
-1.0000000000000000e+01 1.0000000000000000e+01
-1.0000000000000000e+01 1.0000000000000000e+01
ITEM: ENTRIES index c_angles
1 110.599 
2 22.2925 
3 31.0931 
4 97.9137 
5 53.8369 
6 112.221 
7 64.9685 
8 23.0486 
9 36.2219 
10 157.611 
ITEM: TIMESTEP
61200
ITEM: NUMBER OF ENTRIES
10
ITEM: BOX BOUNDS pp pp pp
-1.0000000000000000e+01 1.0000000000000000e+01
-1.0000000000000000e+01 1.0000000000000000e+01
-1.0000000000000000e+01 1.0000000000000000e+01
ITEM: ENTRIES index c_angles
1 121.735 
2 12.1634 
3 50.0853 
4 101.364 
5 61.2241 
6 112.611 
7 56.3883 
8 25.5071 
9 35.6804 
10 141.563 
ITEM: TIMESTEP
61300
ITEM: NUMBER OF ENTRIES
10
ITEM: BOX BOUNDS pp pp pp
-1.0000000000000000e+01 1.0000000000000000e+01
-1.0000000000000000e+01 1.0000000000000000e+01
-1.0000000000000000e+01 1.0000000000000000e+01
ITEM: ENTRIES index c_angles
1 129.584 
2 16.6867 
3 59.2048 
4 108.208 
5 71.6432 
6 118.638 
7 44.8024 
8 30.9081 
9 32.3412 
10 130.875 
ITEM: TIMESTEP
61400
ITEM: NUMBER OF ENTRIES
10
ITEM: BOX BOUNDS pp pp pp
-1.0000000000000000e+01 1.0000000000000000e+01
-1.0000000000000000e+01 1.0000000000000000e+01
-1.0000000000000000e+01 1.0000000000000000e+01
ITEM: ENTRIES index c_angles
1 135.527 
2 34.1864 
3 60.2963 
4 117.889 
5 82.9206 
6 132.314 
7 32.9243 
8 35.4575 
9 31.2254 
10 126.838 
ITEM: TIMESTEP
61500
ITEM: NUMBER OF ENTRIES
10
ITEM: BOX BOUNDS pp pp pp
-1.0000000000000000e+01 1.0000000000000000e+01
-1.0000000000000000e+01 1.0000000000000000e+01
-1.0000000000000000e+01 1.0000000000000000e+01
ITEM: ENTRIES index c_angles
1 141.682 
2 40.1645 
3 60.9776 
4 125.186 
5 89.4624 
6 153.758 
7 19.192 
8 40.3145 
9 33.782 
10 124.465 
ITEM: TIMESTEP
61600
ITEM: NUMBER OF ENTRIES
10
ITEM: BOX BOUNDS pp pp pp
-1.0000000000000000e+01 1.0000000000000000e+01
-1.0000000000000000e+01 1.0000000000000000e+01
-1.0000000000000000e+01 1.0000000000000000e+01
ITEM: ENTRIES index c_angles
1 145.237 
2 39.4236 
3 63.1816 
4 123.645 
5 97.1417 
6 133.234 
7 5.28799 
8 45.7987 
9 36.7906 
10 112.965 
ITEM: TIMESTEP
61700
ITEM: NUMBER OF ENTRIES
10
ITEM: BOX BOUNDS pp pp pp
-1.0000000000000000e+01 1.0000000000000000e+01
-1.0000000000000000e+01 1.0000000000000000e+01
-1.0000000000000000e+01 1.0000000000000000e+01
ITEM: ENTRIES index c_angles
1 130.428 
2 36.1772 
3 66.3783 
4 119.509 
5 102.914 
6 102.899 
7 7.23884 
8 59.7717 
9 38.1478 
10 94.9717 
ITEM: TIMESTEP
61800
ITEM: NUMBER OF ENTRIES
10
ITEM: BOX BOUNDS pp pp pp
-1.0000000000000000e+01 1.0000000000000000e+01
-1.0000000000000000e+01 1.0000000000000000e+01
-1.0000000000000000e+01 1.0000000000000000e+01
ITEM: ENTRIES index c_angles
1 118.316 
2 27.9913 
3 68.2657 
4 117.686 
5 101.498 
6 80.0209 
7 18.7224 
8 72.9701 
9 38.9157 
10 78.1179 
ITEM: TIMESTEP
61900
ITEM: NUMBER OF ENTRIES
10
ITEM: BOX BOUNDS pp pp pp
-1.0000000000000000e+01 1.0000000000000000e+01
-1.0000000000000000e+01 1.0000000000000000e+01
-1.0000000000000000e+01 1.0000000000000000e+01
ITEM: ENTRIES index c_angles
1 112.696 
2 18.9686 
3 70.5182 
4 111.232 
5 102.603 
6 67.7445 
7 33.205 
8 82.3351 
9 42.0776 
10 69.1895 
ITEM: TIMESTEP
62000
ITEM: NUMBER OF ENTRIES
10
ITEM: BOX BOUNDS pp pp pp
-1.0000000000000000e+01 1.0000000000000000e+01
-1.0000000000000000e+01 1.0000000000000000e+01
-1.0000000000000000e+01 1.0000000000000000e+01
ITEM: ENTRIES index c_angles
1 102.24 
2 16.9288 
3 72.2624 
4 102.49 
5 99.1336 
6 56.7988 
7 48.6714 
8 86.3664 
9 47.919 
10 67.7157 
ITEM: TIMESTEP
62100
ITEM: NUMBER OF ENTRIES
10
ITEM: BOX BOUNDS pp pp pp
-1.0000000000000000e+01 1.0000000000000000e+01
-1.0000000000000000e+01 1.0000000000000000e+01
-1.0000000000000000e+01 1.0000000000000000e+01
ITEM: ENTRIES index c_angles
1 91.7883 
2 23.4143 
3 71.1929 
4 95.1105 
5 94.825 
6 49.7627 
7 61.4 
8 90.4952 
9 51.4606 
10 65.3107 
ITEM: TIMESTEP
62200
ITEM: NUMBER OF ENTRIES
10
ITEM: BOX BOUNDS pp pp pp
-1.0000000000000000e+01 1.0000000000000000e+01
-1.0000000000000000e+01 1.0000000000000000e+01
-1.0000000000000000e+01 1.0000000000000000e+01
ITEM: ENTRIES index c_angles
1 82.2922 
2 75.7427 
3 29.7382 
4 91.2885 
5 71.3631 
6 86.5496 
7 45.2006 
8 90.1184 
9 66.7106 
10 57.438 
ITEM: TIMESTEP
62300
ITEM: NUMBER OF ENTRIES
10
ITEM: BOX BOUNDS pp pp pp
-1.0000000000000000e+01 1.0000000000000000e+01
-1.0000000000000000e+01 1.0000000000000000e+01
-1.0000000000000000e+01 1.0000000000000000e+01
ITEM: ENTRIES index c_angles
1 68.5264 
2 77.2126 
3 34.8841 
4 88.1386 
5 78.9282 
6 70.1114 
7 39.176 
8 92.8434 
9 78.1912 
10 64.0289 
ITEM: TIMESTEP
62400
ITEM: NUMBER OF ENTRIES
10
ITEM: BOX BOUNDS pp pp pp
-1.0000000000000000e+01 1.0000000000000000e+01
-1.0000000000000000e+01 1.0000000000000000e+01
-1.0000000000000000e+01 1.0000000000000000e+01
ITEM: ENTRIES index c_angles
1 58.1878 
2 70.1555 
3 36.4259 
4 91.4664 
5 84.2274 
6 49.417 
7 32.4747 
8 97.4098 
9 100.656 
10 65.3054 
ITEM: TIMESTEP
62500
ITEM: NUMBER OF ENTRIES
10
ITEM: BOX BOUNDS pp pp pp
-1.0000000000000000e+01 1.0000000000000000e+01
-1.0000000000000000e+01 1.0000000000000000e+01
-1.0000000000000000e+01 1.0000000000000000e+01
ITEM: ENTRIES index c_angles
1 57.4226 
2 52.7865 
3 39.3645 
4 97.4017 
5 95.3295 
6 36.515 
7 25.3791 
8 94.3818 
9 119.168 
10 61.9557 
ITEM: TIMESTEP
62600
ITEM: NUMBER OF ENTRIES
10
ITEM: BOX BOUNDS pp pp pp
-1.0000000000000000e+01 1.0000000000000000e+01
-1.0000000000000000e+01 1.0000000000000000e+01
-1.0000000000000000e+01 1.0000000000000000e+01
ITEM: ENTRIES index c_angles
1 63.2945 
2 39.0026 
3 43.0677 
4 106.104 
5 110.005 
6 31.6653 
7 16.8894 
8 91.3845 
9 115.059 
10 60.983 
ITEM: TIMESTEP
62700
ITEM: NUMBER OF ENTRIES
10
ITEM: BOX BOUNDS pp pp pp
-1.0000000000000000e+01 1.0000000000000000e+01
-1.0000000000000000e+01 1.0000000000000000e+01
-1.0000000000000000e+01 1.0000000000000000e+01
ITEM: ENTRIES index c_angles
1 70.7307 
2 29.6967 
3 46.748 
4 115.202 
5 119.895 
6 32.5341 
7 6.7554 
8 89.4154 
9 102.256 
10 64.3479 
ITEM: TIMESTEP
62800
ITEM: NUMBER OF ENTRIES
10
ITEM: BOX BOUNDS pp pp pp
-1.0000000000000000e+01 1.0000000000000000e+01
-1.0000000000000000e+01 1.0000000000000000e+01
-1.0000000000000000e+01 1.0000000000000000e+01
ITEM: ENTRIES index c_angles
1 78.1998 
2 29.3021 
3 47.7909 
4 125.28 
5 129.998 
6 36.6828 
7 2.04841 
8 91.7124 
9 96.8076 
10 68.3035 
ITEM: TIMESTEP
62900
ITEM: NUMBER OF ENTRIES
10
ITEM: BOX BOUNDS pp pp pp
-1.0000000000000000e+01 1.0000000000000000e+01
-1.0000000000000000e+01 1.0000000000000000e+01
-1.0000000000000000e+01 1.0000000000000000e+01
ITEM: ENTRIES index c_angles
1 82.1579 
2 37.995 
3 51.3083 
4 135.489 
5 143.665 
6 44.5318 
7 4.63202 
8 92.8 
9 97.064 
10 72.0262 
ITEM: TIMESTEP
63000
ITEM: NUMBER OF ENTRIES
10
ITEM: BOX BOUNDS pp pp pp
-1.0000000000000000e+01 1.0000000000000000e+01
-1.0000000000000000e+01 1.0000000000000000e+01
-1.0000000000000000e+01 1.0000000000000000e+01
ITEM: ENTRIES index c_angles
1 83.7161 
2 52.1124 
3 60.9269 
4 135.512 
5 146.213 
6 55.3606 
7 10.8429 
8 93.7252 
9 103.011 
10 75.2565 
ITEM: TIMESTEP
63100
ITEM: NUMBER OF ENTRIES
10
ITEM: BOX BOUNDS pp pp pp
-1.0000000000000000e+01 1.0000000000000000e+01
-1.0000000000000000e+01 1.0000000000000000e+01
-1.0000000000000000e+01 1.0000000000000000e+01
ITEM: ENTRIES index c_angles
1 85.6042 
2 67.6623 
3 71.1676 
4 130.925 
5 120.902 
6 23.4973 
7 69.4583 
8 94.0993 
9 115.416 
10 79.363 
ITEM: TIMESTEP
63200
ITEM: NUMBER OF ENTRIES
10
ITEM: BOX BOUNDS pp pp pp
-1.0000000000000000e+01 1.0000000000000000e+01
-1.0000000000000000e+01 1.0000000000000000e+01
-1.0000000000000000e+01 1.0000000000000000e+01
ITEM: ENTRIES index c_angles
1 85.2585 
2 81.2783 
3 74.7901 
4 123.559 
5 101.108 
6 33.3601 
7 79.7956 
8 95.5867 
9 141.755 
10 78.8579 
ITEM: TIMESTEP
63300
ITEM: NUMBER OF ENTRIES
10
ITEM: BOX BOUNDS pp pp pp
-1.0000000000000000e+01 1.0000000000000000e+01
-1.0000000000000000e+01 1.0000000000000000e+01
-1.0000000000000000e+01 1.0000000000000000e+01
ITEM: ENTRIES index c_angles
1 82.2406 
2 99.0671 
3 74.5587 
4 117.314 
5 85.5399 
6 40.911 
7 80.6927 
8 99.7026 
9 170.884 
10 74.4878 
ITEM: TIMESTEP
63400
ITEM: NUMBER OF ENTRIES
10
ITEM: BOX BOUNDS pp pp pp
-1.0000000000000000e+01 1.0000000000000000e+01
-1.0000000000000000e+01 1.0000000000000000e+01
-1.0000000000000000e+01 1.0000000000000000e+01
ITEM: ENTRIES index c_angles
1 83.8925 
2 117.085 
3 74.3873 
4 111.365 
5 79.2445 
6 50.2456 
7 79.0663 
8 113.012 
9 150.349 
10 67.5883 
ITEM: TIMESTEP
63500
ITEM: NUMBER OF ENTRIES
10
ITEM: BOX BOUNDS pp pp pp
-1.0000000000000000e+01 1.0000000000000000e+01
-1.0000000000000000e+01 1.0000000000000000e+01
-1.0000000000000000e+01 1.0000000000000000e+01
ITEM: ENTRIES index c_angles
1 86.8584 
2 138.351 
3 76.0039 
4 109.45 
5 81.8638 
6 63.3199 
7 74.0804 
8 127.258 
9 124.354 
10 57.9408 
ITEM: TIMESTEP
63600
ITEM: NUMBER OF ENTRIES
10
ITEM: BOX BOUNDS pp pp pp
-1.0000000000000000e+01 1.0000000000000000e+01
-1.0000000000000000e+01 1.0000000000000000e+01
-1.0000000000000000e+01 1.0000000000000000e+01
ITEM: ENTRIES index c_angles
1 89.9857 
2 157.058 
3 73.9302 
4 106.854 
5 85.8635 
6 82.627 
7 72.6669 
8 134.364 
9 106.881 
10 48.3946 
ITEM: TIMESTEP
63700
ITEM: NUMBER OF ENTRIES
10
ITEM: BOX BOUNDS pp pp pp
-1.0000000000000000e+01 1.0000000000000000e+01
-1.0000000000000000e+01 1.0000000000000000e+01
-1.0000000000000000e+01 1.0000000000000000e+01
ITEM: ENTRIES index c_angles
1 90.7855 
2 169.74 
3 69.7625 
4 105.534 
5 95.0001 
6 101.235 
7 78.8075 
8 137.527 
9 97.3599 
10 43.6904 
ITEM: TIMESTEP
63800
ITEM: NUMBER OF ENTRIES
10
ITEM: BOX BOUNDS pp pp pp
-1.0000000000000000e+01 1.0000000000000000e+01
-1.0000000000000000e+01 1.0000000000000000e+01
-1.0000000000000000e+01 1.0000000000000000e+01
ITEM: ENTRIES index c_angles
1 95.8614 
2 163.729 
3 61.6055 
4 99.1232 
5 109.56 
6 118.102 
7 84.1925 
8 142.129 
9 93.8604 
10 46.5569 
ITEM: TIMESTEP
63900
ITEM: NUMBER OF ENTRIES
10
ITEM: BOX BOUNDS pp pp pp
-1.0000000000000000e+01 1.0000000000000000e+01
-1.0000000000000000e+01 1.0000000000000000e+01
-1.0000000000000000e+01 1.0000000000000000e+01
ITEM: ENTRIES index c_angles
1 103.947 
2 152.492 
3 53.0758 
4 94.5015 
5 123.536 
6 130.693 
7 88.3956 
8 153.029 
9 88.5571 
10 52.3699 
ITEM: TIMESTEP
64000
ITEM: NUMBER OF ENTRIES
10
ITEM: BOX BOUNDS pp pp pp
-1.0000000000000000e+01 1.0000000000000000e+01
-1.0000000000000000e+01 1.0000000000000000e+01
-1.0000000000000000e+01 1.0000000000000000e+01
ITEM: ENTRIES index c_angles
1 110.752 
2 145.414 
3 50.4171 
4 91.0361 
5 135.768 
6 139.146 
7 89.6809 
8 155.583 
9 82.2521 
10 61.1641 
ITEM: TIMESTEP
64100
ITEM: NUMBER OF ENTRIES
10
ITEM: BOX BOUNDS pp pp pp
-1.0000000000000000e+01 1.0000000000000000e+01
-1.0000000000000000e+01 1.0000000000000000e+01
-1.0000000000000000e+01 1.0000000000000000e+01
ITEM: ENTRIES index c_angles
1 116.601 
2 141.596 
3 47.6499 
4 145.353 
5 95.3645 
6 87.1668 
7 151.848 
8 142.809 
9 68.756 
10 63.11 
ITEM: TIMESTEP
64200
ITEM: NUMBER OF ENTRIES
10
ITEM: BOX BOUNDS pp pp pp
-1.0000000000000000e+01 1.0000000000000000e+01
-1.0000000000000000e+01 1.0000000000000000e+01
-1.0000000000000000e+01 1.0000000000000000e+01
ITEM: ENTRIES index c_angles
1 122.196 
2 130.9 
3 44.0246 
4 147.622 
5 107.377 
6 82.618 
7 151.181 
8 145.266 
9 68.8739 
10 61.2784 
ITEM: TIMESTEP
64300
ITEM: NUMBER OF ENTRIES
10
ITEM: BOX BOUNDS pp pp pp
-1.0000000000000000e+01 1.0000000000000000e+01
-1.0000000000000000e+01 1.0000000000000000e+01
-1.0000000000000000e+01 1.0000000000000000e+01
ITEM: ENTRIES index c_angles
1 126.975 
2 119.176 
3 37.5299 
4 136.656 
5 123.336 
6 72.5168 
7 153.353 
8 150.188 
9 76.0429 
10 62.8423 
ITEM: TIMESTEP
64400
ITEM: NUMBER OF ENTRIES
10
ITEM: BOX BOUNDS pp pp pp
-1.0000000000000000e+01 1.0000000000000000e+01
-1.0000000000000000e+01 1.0000000000000000e+01
-1.0000000000000000e+01 1.0000000000000000e+01
ITEM: ENTRIES index c_angles
1 123.854 
2 109.695 
3 34.5734 
4 125.381 
5 142.833 
6 64.9299 
7 154.159 
8 157.695 
9 81.1336 
10 64.9185 
ITEM: TIMESTEP
64500
ITEM: NUMBER OF ENTRIES
10
ITEM: BOX BOUNDS pp pp pp
-1.0000000000000000e+01 1.0000000000000000e+01
-1.0000000000000000e+01 1.0000000000000000e+01
-1.0000000000000000e+01 1.0000000000000000e+01
ITEM: ENTRIES index c_angles
1 114.151 
2 102.297 
3 30.9004 
4 107.23 
5 151.435 
6 60.4304 
7 152.027 
8 155.825 
9 86.2829 
10 67.7435 
ITEM: TIMESTEP
64600
ITEM: NUMBER OF ENTRIES
10
ITEM: BOX BOUNDS pp pp pp
-1.0000000000000000e+01 1.0000000000000000e+01
-1.0000000000000000e+01 1.0000000000000000e+01
-1.0000000000000000e+01 1.0000000000000000e+01
ITEM: ENTRIES index c_angles
1 99.1101 
2 97.5563 
3 20.5354 
4 91.3271 
5 143.287 
6 58.8828 
7 150.653 
8 147.249 
9 86.8745 
10 72.7656 
ITEM: TIMESTEP
64700
ITEM: NUMBER OF ENTRIES
10
ITEM: BOX BOUNDS pp pp pp
-1.0000000000000000e+01 1.0000000000000000e+01
-1.0000000000000000e+01 1.0000000000000000e+01
-1.0000000000000000e+01 1.0000000000000000e+01
ITEM: ENTRIES index c_angles
1 86.3657 
2 92.3505 
3 10.6916 
4 81.8778 
5 135.119 
6 58.3185 
7 152.726 
8 140.518 
9 83.1006 
10 70.5889 
ITEM: TIMESTEP
64800
ITEM: NUMBER OF ENTRIES
10
ITEM: BOX BOUNDS pp pp pp
-1.0000000000000000e+01 1.0000000000000000e+01
-1.0000000000000000e+01 1.0000000000000000e+01
-1.0000000000000000e+01 1.0000000000000000e+01
ITEM: ENTRIES index c_angles
1 79.973 
2 92.1825 
3 6.22467 
4 76.6532 
5 128.241 
6 55.8305 
7 152.928 
8 131.879 
9 77.0664 
10 61.545 
ITEM: TIMESTEP
64900
ITEM: NUMBER OF ENTRIES
10
ITEM: BOX BOUNDS pp pp pp
-1.0000000000000000e+01 1.0000000000000000e+01
-1.0000000000000000e+01 1.0000000000000000e+01
-1.0000000000000000e+01 1.0000000000000000e+01
ITEM: ENTRIES index c_angles
1 75.7458 
2 101.31 
3 11.4714 
4 75.7643 
5 124.145 
6 42.4555 
7 152.758 
8 121.968 
9 68.6973 
10 50.2138 
ITEM: TIMESTEP
65000
ITEM: NUMBER OF ENTRIES
10
ITEM: BOX BOUNDS pp pp pp
-1.0000000000000000e+01 1.0000000000000000e+01
-1.0000000000000000e+01 1.0000000000000000e+01
-1.0000000000000000e+01 1.0000000000000000e+01
ITEM: ENTRIES index c_angles
1 72.6027 
2 110.944 
3 15.3835 
4 78.1752 
5 111.697 
6 22.3051 
7 155.108 
8 116.242 
9 60.7618 
10 40.4853 
ITEM: TIMESTEP
65100
ITEM: NUMBER OF ENTRIES
10
ITEM: BOX BOUNDS pp pp pp
-1.0000000000000000e+01 1.0000000000000000e+01
-1.0000000000000000e+01 1.0000000000000000e+01
-1.0000000000000000e+01 1.0000000000000000e+01
ITEM: ENTRIES index c_angles
1 75.0044 
2 125.225 
3 17.0108 
4 86.8168 
5 93.2386 
6 159.758 
7 6.93814 
8 114.252 
9 52.236 
10 35.8967 
ITEM: TIMESTEP
65200
ITEM: NUMBER OF ENTRIES
10
ITEM: BOX BOUNDS pp pp pp
-1.0000000000000000e+01 1.0000000000000000e+01
-1.0000000000000000e+01 1.0000000000000000e+01
-1.0000000000000000e+01 1.0000000000000000e+01
ITEM: ENTRIES index c_angles
1 81.3112 
2 154.218 
3 11.139 
4 88.3105 
5 79.3554 
6 149.036 
7 4.15291 
8 112.197 
9 41.6772 
10 32.2093 
ITEM: TIMESTEP
65300
ITEM: NUMBER OF ENTRIES
10
ITEM: BOX BOUNDS pp pp pp
-1.0000000000000000e+01 1.0000000000000000e+01
-1.0000000000000000e+01 1.0000000000000000e+01
-1.0000000000000000e+01 1.0000000000000000e+01
ITEM: ENTRIES index c_angles
1 90.8983 
2 177.65 
3 2.21021 
4 82.3092 
5 65.4228 
6 127.779 
7 13.1883 
8 110.75 
9 33.8339 
10 31.0389 
ITEM: TIMESTEP
65400
ITEM: NUMBER OF ENTRIES
10
ITEM: BOX BOUNDS pp pp pp
-1.0000000000000000e+01 1.0000000000000000e+01
-1.0000000000000000e+01 1.0000000000000000e+01
-1.0000000000000000e+01 1.0000000000000000e+01
ITEM: ENTRIES index c_angles
1 97.9322 
2 168.708 
3 11.9499 
4 74.5483 
5 49.0123 
6 109.183 
7 21.7682 
8 111.318 
9 31.167 
10 31.4002 
ITEM: TIMESTEP
65500
ITEM: NUMBER OF ENTRIES
10
ITEM: BOX BOUNDS pp pp pp
-1.0000000000000000e+01 1.0000000000000000e+01
-1.0000000000000000e+01 1.0000000000000000e+01
-1.0000000000000000e+01 1.0000000000000000e+01
ITEM: ENTRIES index c_angles
1 105.095 
2 146.741 
3 18.7684 
4 64.7735 
5 35.9232 
6 97.5324 
7 30.1698 
8 114.467 
9 34.677 
10 33.8907 
ITEM: TIMESTEP
65600
ITEM: NUMBER OF ENTRIES
10
ITEM: BOX BOUNDS pp pp pp
-1.0000000000000000e+01 1.0000000000000000e+01
-1.0000000000000000e+01 1.0000000000000000e+01
-1.0000000000000000e+01 1.0000000000000000e+01
ITEM: ENTRIES index c_angles
1 109.339 
2 119.42 
3 13.9397 
4 55.4503 
5 30.0381 
6 90.1197 
7 32.3807 
8 124.797 
9 42.7152 
10 41.372 
ITEM: TIMESTEP
65700
ITEM: NUMBER OF ENTRIES
10
ITEM: BOX BOUNDS pp pp pp
-1.0000000000000000e+01 1.0000000000000000e+01
-1.0000000000000000e+01 1.0000000000000000e+01
-1.0000000000000000e+01 1.0000000000000000e+01
ITEM: ENTRIES index c_angles
1 106.872 
2 94.1405 
3 12.7775 
4 46.1825 
5 32.005 
6 90.3597 
7 24.5418 
8 124.04 
9 47.2572 
10 47.6482 
ITEM: TIMESTEP
65800
ITEM: NUMBER OF ENTRIES
10
ITEM: BOX BOUNDS pp pp pp
-1.0000000000000000e+01 1.0000000000000000e+01
-1.0000000000000000e+01 1.0000000000000000e+01
-1.0000000000000000e+01 1.0000000000000000e+01
ITEM: ENTRIES index c_angles
1 109.984 
2 79.6482 
3 16.5847 
4 41.1427 
5 38.3582 
6 90.0527 
7 13.3781 
8 116.404 
9 46.763 
10 57.5984 
ITEM: TIMESTEP
65900
ITEM: NUMBER OF ENTRIES
10
ITEM: BOX BOUNDS pp pp pp
-1.0000000000000000e+01 1.0000000000000000e+01
-1.0000000000000000e+01 1.0000000000000000e+01
-1.0000000000000000e+01 1.0000000000000000e+01
ITEM: ENTRIES index c_angles
1 113.664 
2 68.6266 
3 21.033 
4 39.7265 
5 44.6964 
6 90.6493 
7 21.4456 
8 100.18 
9 44.9852 
10 73.6295 
ITEM: TIMESTEP
66000
ITEM: NUMBER OF ENTRIES
10
ITEM: BOX BOUNDS pp pp pp
-1.0000000000000000e+01 1.0000000000000000e+01
-1.0000000000000000e+01 1.0000000000000000e+01
-1.0000000000000000e+01 1.0000000000000000e+01
ITEM: ENTRIES index c_angles
1 118.936 
2 56.4718 
3 23.3484 
4 40.1365 
5 56.7619 
6 95.3267 
7 32.8106 
8 91.5923 
9 47.3898 
10 99.0081 
ITEM: TIMESTEP
66100
ITEM: NUMBER OF ENTRIES
10
ITEM: BOX BOUNDS pp pp pp
-1.0000000000000000e+01 1.0000000000000000e+01
-1.0000000000000000e+01 1.0000000000000000e+01
-1.0000000000000000e+01 1.0000000000000000e+01
ITEM: ENTRIES index c_angles
1 125.587 
2 32.5036 
3 23.7704 
4 44.8445 
5 74.0809 
6 100.553 
7 39.0015 
8 90.7898 
9 52.3705 
10 132.786 
ITEM: TIMESTEP
66200
ITEM: NUMBER OF ENTRIES
10
ITEM: BOX BOUNDS pp pp pp
-1.0000000000000000e+01 1.0000000000000000e+01
-1.0000000000000000e+01 1.0000000000000000e+01
-1.0000000000000000e+01 1.0000000000000000e+01
ITEM: ENTRIES index c_angles
1 135.062 
2 25.7895 
3 53.7623 
4 87.3058 
5 38.2606 
6 106.119 
7 98.3595 
8 29.1881 
9 60.4004 
10 153.722 
ITEM: TIMESTEP
66300
ITEM: NUMBER OF ENTRIES
10
ITEM: BOX BOUNDS pp pp pp
-1.0000000000000000e+01 1.0000000000000000e+01
-1.0000000000000000e+01 1.0000000000000000e+01
-1.0000000000000000e+01 1.0000000000000000e+01
ITEM: ENTRIES index c_angles
1 142.985 
2 29.3566 
3 69.1813 
4 93.6335 
5 33.7539 
6 109.647 
7 116.005 
8 39.5119 
9 67.6281 
10 117.641 
ITEM: TIMESTEP
66400
ITEM: NUMBER OF ENTRIES
10
ITEM: BOX BOUNDS pp pp pp
-1.0000000000000000e+01 1.0000000000000000e+01
-1.0000000000000000e+01 1.0000000000000000e+01
-1.0000000000000000e+01 1.0000000000000000e+01
ITEM: ENTRIES index c_angles
1 152.102 
2 29.6448 
3 75.8684 
4 97.7688 
5 25.8706 
6 107.224 
7 126.646 
8 50.8183 
9 72.9361 
10 87.3593 
ITEM: TIMESTEP
66500
ITEM: NUMBER OF ENTRIES
10
ITEM: BOX BOUNDS pp pp pp
-1.0000000000000000e+01 1.0000000000000000e+01
-1.0000000000000000e+01 1.0000000000000000e+01
-1.0000000000000000e+01 1.0000000000000000e+01
ITEM: ENTRIES index c_angles
1 160.688 
2 33.8027 
3 64.5304 
4 97.1473 
5 22.8569 
6 101.365 
7 99.1726 
8 53.0659 
9 80.0505 
10 66.4231 
ITEM: TIMESTEP
66600
ITEM: NUMBER OF ENTRIES
10
ITEM: BOX BOUNDS pp pp pp
-1.0000000000000000e+01 1.0000000000000000e+01
-1.0000000000000000e+01 1.0000000000000000e+01
-1.0000000000000000e+01 1.0000000000000000e+01
ITEM: ENTRIES index c_angles
1 167.001 
2 38.9257 
3 52.6207 
4 97.904 
5 27.6174 
6 98.019 
7 80.3807 
8 45.3182 
9 88.469 
10 53.7041 
ITEM: TIMESTEP
66700
ITEM: NUMBER OF ENTRIES
10
ITEM: BOX BOUNDS pp pp pp
-1.0000000000000000e+01 1.0000000000000000e+01
-1.0000000000000000e+01 1.0000000000000000e+01
-1.0000000000000000e+01 1.0000000000000000e+01
ITEM: ENTRIES index c_angles
1 174.135 
2 40.0135 
3 47.6986 
4 99.7186 
5 26.3143 
6 95.771 
7 72.193 
8 35.4073 
9 102.633 
10 48.085 
ITEM: TIMESTEP
66800
ITEM: NUMBER OF ENTRIES
10
ITEM: BOX BOUNDS pp pp pp
-1.0000000000000000e+01 1.0000000000000000e+01
-1.0000000000000000e+01 1.0000000000000000e+01
-1.0000000000000000e+01 1.0000000000000000e+01
ITEM: ENTRIES index c_angles
1 173.926 
2 41.2745 
3 49.7829 
4 102.16 
5 23.163 
6 93.1759 
7 75.0338 
8 25.9127 
9 113.737 
10 47.8893 
ITEM: TIMESTEP
66900
ITEM: NUMBER OF ENTRIES
10
ITEM: BOX BOUNDS pp pp pp
-1.0000000000000000e+01 1.0000000000000000e+01
-1.0000000000000000e+01 1.0000000000000000e+01
-1.0000000000000000e+01 1.0000000000000000e+01
ITEM: ENTRIES index c_angles
1 161.328 
2 46.4022 
3 55.7075 
4 107.16 
5 18.337 
6 87.7939 
7 82.3223 
8 17.485 
9 118.003 
10 50.371 
ITEM: TIMESTEP
67000
ITEM: NUMBER OF ENTRIES
10
ITEM: BOX BOUNDS pp pp pp
-1.0000000000000000e+01 1.0000000000000000e+01
-1.0000000000000000e+01 1.0000000000000000e+01
-1.0000000000000000e+01 1.0000000000000000e+01
ITEM: ENTRIES index c_angles
1 147.313 
2 52.1948 
3 60.8805 
4 109.438 
5 21.0198 
6 79.2813 
7 89.849 
8 9.93726 
9 112.565 
10 52.6966 
ITEM: TIMESTEP
67100
ITEM: NUMBER OF ENTRIES
10
ITEM: BOX BOUNDS pp pp pp
-1.0000000000000000e+01 1.0000000000000000e+01
-1.0000000000000000e+01 1.0000000000000000e+01
-1.0000000000000000e+01 1.0000000000000000e+01
ITEM: ENTRIES index c_angles
1 135.402 
2 52.9758 
3 63.0663 
4 108.669 
5 91.8145 
6 70.8939 
7 30.4014 
8 4.21771 
9 105.577 
10 51.2887 
ITEM: TIMESTEP
67200
ITEM: NUMBER OF ENTRIES
10
ITEM: BOX BOUNDS pp pp pp
-1.0000000000000000e+01 1.0000000000000000e+01
-1.0000000000000000e+01 1.0000000000000000e+01
-1.0000000000000000e+01 1.0000000000000000e+01
ITEM: ENTRIES index c_angles
1 122.334 
2 51.8133 
3 62.6094 
4 111.699 
5 87.8794 
6 72.0599 
7 40.7556 
8 3.82874 
9 100.225 
10 52.4729 
ITEM: TIMESTEP
67300
ITEM: NUMBER OF ENTRIES
10
ITEM: BOX BOUNDS pp pp pp
-1.0000000000000000e+01 1.0000000000000000e+01
-1.0000000000000000e+01 1.0000000000000000e+01
-1.0000000000000000e+01 1.0000000000000000e+01
ITEM: ENTRIES index c_angles
1 108.361 
2 50.703 
3 53.3517 
4 113.232 
5 75.28 
6 71.8051 
7 48.474 
8 18.1801 
9 98.9482 
10 53.0677 
ITEM: TIMESTEP
67400
ITEM: NUMBER OF ENTRIES
10
ITEM: BOX BOUNDS pp pp pp
-1.0000000000000000e+01 1.0000000000000000e+01
-1.0000000000000000e+01 1.0000000000000000e+01
-1.0000000000000000e+01 1.0000000000000000e+01
ITEM: ENTRIES index c_angles
1 96.3097 
2 55.3684 
3 46.9774 
4 111.513 
5 61.7859 
6 64.9032 
7 48.3387 
8 36.5545 
9 100.068 
10 50.2727 
ITEM: TIMESTEP
67500
ITEM: NUMBER OF ENTRIES
10
ITEM: BOX BOUNDS pp pp pp
-1.0000000000000000e+01 1.0000000000000000e+01
-1.0000000000000000e+01 1.0000000000000000e+01
-1.0000000000000000e+01 1.0000000000000000e+01
ITEM: ENTRIES index c_angles
1 83.6801 
2 60.9609 
3 45.1464 
4 100.805 
5 54.1301 
6 53.7666 
7 45.3441 
8 56.7362 
9 99.6369 
10 50.9347 
ITEM: TIMESTEP
67600
ITEM: NUMBER OF ENTRIES
10
ITEM: BOX BOUNDS pp pp pp
-1.0000000000000000e+01 1.0000000000000000e+01
-1.0000000000000000e+01 1.0000000000000000e+01
-1.0000000000000000e+01 1.0000000000000000e+01
ITEM: ENTRIES index c_angles
1 73.0237 
2 68.234 
3 43.772 
4 90.5056 
5 52.0957 
6 42.9627 
7 44.5541 
8 71.2197 
9 97.4172 
10 52.7274 
ITEM: TIMESTEP
67700
ITEM: NUMBER OF ENTRIES
10
ITEM: BOX BOUNDS pp pp pp
-1.0000000000000000e+01 1.0000000000000000e+01
-1.0000000000000000e+01 1.0000000000000000e+01
-1.0000000000000000e+01 1.0000000000000000e+01
ITEM: ENTRIES index c_angles
1 63.9629 
2 72.6283 
3 42.4677 
4 79.8242 
5 49.8147 
6 36.7341 
7 47.0055 
8 76.1536 
9 93.1555 
10 51.4176 
ITEM: TIMESTEP
67800
ITEM: NUMBER OF ENTRIES
10
ITEM: BOX BOUNDS pp pp pp
-1.0000000000000000e+01 1.0000000000000000e+01
-1.0000000000000000e+01 1.0000000000000000e+01
-1.0000000000000000e+01 1.0000000000000000e+01
ITEM: ENTRIES index c_angles
1 58.2521 
2 73.9189 
3 35.6227 
4 74.0768 
5 53.0963 
6 36.8501 
7 53.3455 
8 76.8747 
9 88.6448 
10 52.1652 
ITEM: TIMESTEP
67900
ITEM: NUMBER OF ENTRIES
10
ITEM: BOX BOUNDS pp pp pp
-1.0000000000000000e+01 1.0000000000000000e+01
-1.0000000000000000e+01 1.0000000000000000e+01
-1.0000000000000000e+01 1.0000000000000000e+01
ITEM: ENTRIES index c_angles
1 61.4999 
2 76.8069 
3 24.4213 
4 69.9995 
5 63.8226 
6 42.2154 
7 56.6178 
8 78.558 
9 89.0057 
10 54.2007 
ITEM: TIMESTEP
68000
ITEM: NUMBER OF ENTRIES
10
ITEM: BOX BOUNDS pp pp pp
-1.0000000000000000e+01 1.0000000000000000e+01
-1.0000000000000000e+01 1.0000000000000000e+01
-1.0000000000000000e+01 1.0000000000000000e+01
ITEM: ENTRIES index c_angles
1 64.6679 
2 81.5178 
3 18.9778 
4 67.79 
5 79.0292 
6 53.5448 
7 58.0903 
8 82.0856 
9 89.4073 
10 56.9425 
ITEM: TIMESTEP
68100
ITEM: NUMBER OF ENTRIES
10
ITEM: BOX BOUNDS pp pp pp
-1.0000000000000000e+01 1.0000000000000000e+01
-1.0000000000000000e+01 1.0000000000000000e+01
-1.0000000000000000e+01 1.0000000000000000e+01
ITEM: ENTRIES index c_angles
1 60.942 
2 83.2617 
3 81.2021 
4 20.0468 
5 68.1501 
6 62.1529 
7 69.9037 
8 100.733 
9 89.6085 
10 56.3084 
ITEM: TIMESTEP
68200
ITEM: NUMBER OF ENTRIES
10
ITEM: BOX BOUNDS pp pp pp
-1.0000000000000000e+01 1.0000000000000000e+01
-1.0000000000000000e+01 1.0000000000000000e+01
-1.0000000000000000e+01 1.0000000000000000e+01
ITEM: ENTRIES index c_angles
1 58.7958 
2 86.871 
3 73.9911 
4 22.8701 
5 76.5192 
6 67.3968 
7 86.683 
8 114.26 
9 89.7986 
10 51.7728 
ITEM: TIMESTEP
68300
ITEM: NUMBER OF ENTRIES
10
ITEM: BOX BOUNDS pp pp pp
-1.0000000000000000e+01 1.0000000000000000e+01
-1.0000000000000000e+01 1.0000000000000000e+01
-1.0000000000000000e+01 1.0000000000000000e+01
ITEM: ENTRIES index c_angles
1 62.2835 
2 95.8324 
3 58.7975 
4 29.7835 
5 84.3216 
6 69.4729 
7 104.18 
8 116.568 
9 84.9744 
10 44.5688 
ITEM: TIMESTEP
68400
ITEM: NUMBER OF ENTRIES
10
ITEM: BOX BOUNDS pp pp pp
-1.0000000000000000e+01 1.0000000000000000e+01
-1.0000000000000000e+01 1.0000000000000000e+01
-1.0000000000000000e+01 1.0000000000000000e+01
ITEM: ENTRIES index c_angles
1 66.4645 
2 100.162 
3 49.5431 
4 36.9251 
5 90.9089 
6 73.5715 
7 114.421 
8 118.252 
9 76.4814 
10 37.5148 
ITEM: TIMESTEP
68500
ITEM: NUMBER OF ENTRIES
10
ITEM: BOX BOUNDS pp pp pp
-1.0000000000000000e+01 1.0000000000000000e+01
-1.0000000000000000e+01 1.0000000000000000e+01
-1.0000000000000000e+01 1.0000000000000000e+01
ITEM: ENTRIES index c_angles
1 74.7625 
2 97.8957 
3 41.5271 
4 46.7688 
5 97.1042 
6 77.1541 
7 120.004 
8 124.249 
9 63.2685 
10 42.2931 
ITEM: TIMESTEP
68600
ITEM: NUMBER OF ENTRIES
10
ITEM: BOX BOUNDS pp pp pp
-1.0000000000000000e+01 1.0000000000000000e+01
-1.0000000000000000e+01 1.0000000000000000e+01
-1.0000000000000000e+01 1.0000000000000000e+01
ITEM: ENTRIES index c_angles
1 86.3736 
2 94.6378 
3 39.57 
4 61.1411 
5 93.9473 
6 77.8201 
7 126.659 
8 131.563 
9 55.2401 
10 49.9466 
ITEM: TIMESTEP
68700
ITEM: NUMBER OF ENTRIES
10
ITEM: BOX BOUNDS pp pp pp
-1.0000000000000000e+01 1.0000000000000000e+01
-1.0000000000000000e+01 1.0000000000000000e+01
-1.0000000000000000e+01 1.0000000000000000e+01
ITEM: ENTRIES index c_angles
1 108.487 
2 93.7257 
3 39.144 
4 71.6677 
5 85.8489 
6 73.3282 
7 126.299 
8 130.718 
9 56.5266 
10 60.3079 
ITEM: TIMESTEP
68800
ITEM: NUMBER OF ENTRIES
10
ITEM: BOX BOUNDS pp pp pp
-1.0000000000000000e+01 1.0000000000000000e+01
-1.0000000000000000e+01 1.0000000000000000e+01
-1.0000000000000000e+01 1.0000000000000000e+01
ITEM: ENTRIES index c_angles
1 132.948 
2 92.5384 
3 38.6155 
4 79.8726 
5 75.1439 
6 70.2402 
7 123.69 
8 129.083 
9 60.0507 
10 71.3887 
ITEM: TIMESTEP
68900
ITEM: NUMBER OF ENTRIES
10
ITEM: BOX BOUNDS pp pp pp
-1.0000000000000000e+01 1.0000000000000000e+01
-1.0000000000000000e+01 1.0000000000000000e+01
-1.0000000000000000e+01 1.0000000000000000e+01
ITEM: ENTRIES index c_angles
1 149.1 
2 87.6056 
3 41.6156 
4 78.3405 
5 62.3216 
6 69.1562 
7 121.389 
8 124.963 
9 65.6456 
10 76.0126 
ITEM: TIMESTEP
69000
ITEM: NUMBER OF ENTRIES
10
ITEM: BOX BOUNDS pp pp pp
-1.0000000000000000e+01 1.0000000000000000e+01
-1.0000000000000000e+01 1.0000000000000000e+01
-1.0000000000000000e+01 1.0000000000000000e+01
ITEM: ENTRIES index c_angles
1 158.164 
2 82.3385 
3 39.0775 
4 61.6574 
5 56.6858 
6 64.9414 
7 126.25 
8 122.005 
9 71.6431 
10 77.1399 
ITEM: TIMESTEP
69100
ITEM: NUMBER OF ENTRIES
10
ITEM: BOX BOUNDS pp pp pp
-1.0000000000000000e+01 1.0000000000000000e+01
-1.0000000000000000e+01 1.0000000000000000e+01
-1.0000000000000000e+01 1.0000000000000000e+01
ITEM: ENTRIES index c_angles
1 161.039 
2 80.9421 
3 37.4995 
4 50.672 
5 53.7904 
6 56.2347 
7 136.817 
8 125.303 
9 82.543 
10 78.7651 
ITEM: TIMESTEP
69200
ITEM: NUMBER OF ENTRIES
10
ITEM: BOX BOUNDS pp pp pp
-1.0000000000000000e+01 1.0000000000000000e+01
-1.0000000000000000e+01 1.0000000000000000e+01
-1.0000000000000000e+01 1.0000000000000000e+01
ITEM: ENTRIES index c_angles
1 77.6269 
2 36.4634 
3 49.2113 
4 46.4674 
5 134.392 
6 140.461 
7 165.559 
8 100.4 
9 76.3239 
10 47.4096 
ITEM: TIMESTEP
69300
ITEM: NUMBER OF ENTRIES
10
ITEM: BOX BOUNDS pp pp pp
-1.0000000000000000e+01 1.0000000000000000e+01
-1.0000000000000000e+01 1.0000000000000000e+01
-1.0000000000000000e+01 1.0000000000000000e+01
ITEM: ENTRIES index c_angles
1 71.1602 
2 36.9687 
3 47.1721 
4 40.1438 
5 143.353 
6 136.548 
7 167.47 
8 119.44 
9 78.1001 
10 46.3431 
ITEM: TIMESTEP
69400
ITEM: NUMBER OF ENTRIES
10
ITEM: BOX BOUNDS pp pp pp
-1.0000000000000000e+01 1.0000000000000000e+01
-1.0000000000000000e+01 1.0000000000000000e+01
-1.0000000000000000e+01 1.0000000000000000e+01
ITEM: ENTRIES index c_angles
1 72.3104 
2 37.6645 
3 48.9548 
4 31.7979 
5 154.373 
6 133.716 
7 165.076 
8 135.731 
9 86.7759 
10 44.8776 
ITEM: TIMESTEP
69500
ITEM: NUMBER OF ENTRIES
10
ITEM: BOX BOUNDS pp pp pp
-1.0000000000000000e+01 1.0000000000000000e+01
-1.0000000000000000e+01 1.0000000000000000e+01
-1.0000000000000000e+01 1.0000000000000000e+01
ITEM: ENTRIES index c_angles
1 75.4056 
2 34.4333 
3 53.6929 
4 24.9363 
5 162.256 
6 130.376 
7 163.907 
8 142.906 
9 93.8709 
10 45.5234 
ITEM: TIMESTEP
69600
ITEM: NUMBER OF ENTRIES
10
ITEM: BOX BOUNDS pp pp pp
-1.0000000000000000e+01 1.0000000000000000e+01
-1.0000000000000000e+01 1.0000000000000000e+01
-1.0000000000000000e+01 1.0000000000000000e+01
ITEM: ENTRIES index c_angles
1 77.0077 
2 30.0666 
3 67.6468 
4 22.1044 
5 167.245 
6 119.994 
7 161.448 
8 135.656 
9 107.909 
10 51.1272 
ITEM: TIMESTEP
69700
ITEM: NUMBER OF ENTRIES
10
ITEM: BOX BOUNDS pp pp pp
-1.0000000000000000e+01 1.0000000000000000e+01
-1.0000000000000000e+01 1.0000000000000000e+01
-1.0000000000000000e+01 1.0000000000000000e+01
ITEM: ENTRIES index c_angles
1 74.204 
2 28.0567 
3 83.8033 
4 21.0614 
5 171.523 
6 113.308 
7 160.412 
8 123.857 
9 122.411 
10 57.9328 
ITEM: TIMESTEP
69800
ITEM: NUMBER OF ENTRIES
10
ITEM: BOX BOUNDS pp pp pp
-1.0000000000000000e+01 1.0000000000000000e+01
-1.0000000000000000e+01 1.0000000000000000e+01
-1.0000000000000000e+01 1.0000000000000000e+01
ITEM: ENTRIES index c_angles
1 78.0934 
2 27.2103 
3 105.578 
4 23.7608 
5 160.765 
6 109.916 
7 155.059 
8 115.052 
9 137.114 
10 61.6513 
ITEM: TIMESTEP
69900
ITEM: NUMBER OF ENTRIES
10
ITEM: BOX BOUNDS pp pp pp
-1.0000000000000000e+01 1.0000000000000000e+01
-1.0000000000000000e+01 1.0000000000000000e+01
-1.0000000000000000e+01 1.0000000000000000e+01
ITEM: ENTRIES index c_angles
1 81.6248 
2 30.1893 
3 133.591 
4 29.2289 
5 149.771 
6 107.803 
7 150.702 
8 113.957 
9 154.604 
10 60.981 
ITEM: TIMESTEP
70000
ITEM: NUMBER OF ENTRIES
10
ITEM: BOX BOUNDS pp pp pp
-1.0000000000000000e+01 1.0000000000000000e+01
-1.0000000000000000e+01 1.0000000000000000e+01
-1.0000000000000000e+01 1.0000000000000000e+01
ITEM: ENTRIES index c_angles
1 85.6639 
2 29.9382 
3 159.564 
4 40.7955 
5 144.199 
6 107.423 
7 140.215 
8 115.175 
9 172.32 
10 56.0041 
ITEM: TIMESTEP
70100
ITEM: NUMBER OF ENTRIES
10
ITEM: BOX BOUNDS pp pp pp
-1.0000000000000000e+01 1.0000000000000000e+01
-1.0000000000000000e+01 1.0000000000000000e+01
-1.0000000000000000e+01 1.0000000000000000e+01
ITEM: ENTRIES index c_angles
1 90.0582 
2 121.546 
3 170.725 
4 135.414 
5 106.899 
6 49.9888 
7 24.9544 
8 126.14 
9 153.983 
10 46.6863 
ITEM: TIMESTEP
70200
ITEM: NUMBER OF ENTRIES
10
ITEM: BOX BOUNDS pp pp pp
-1.0000000000000000e+01 1.0000000000000000e+01
-1.0000000000000000e+01 1.0000000000000000e+01
-1.0000000000000000e+01 1.0000000000000000e+01
ITEM: ENTRIES index c_angles
1 94.392 
2 103.044 
3 149.964 
4 127.116 
5 111.425 
6 51.5025 
7 24.8261 
8 139.68 
9 138.499 
10 38.7353 
ITEM: TIMESTEP
70300
ITEM: NUMBER OF ENTRIES
10
ITEM: BOX BOUNDS pp pp pp
-1.0000000000000000e+01 1.0000000000000000e+01
-1.0000000000000000e+01 1.0000000000000000e+01
-1.0000000000000000e+01 1.0000000000000000e+01
ITEM: ENTRIES index c_angles
1 98.2062 
2 90.0525 
3 132.092 
4 118.302 
5 112.707 
6 47.0737 
7 32.9496 
8 142.231 
9 130.134 
10 32.9285 
ITEM: TIMESTEP
70400
ITEM: NUMBER OF ENTRIES
10
ITEM: BOX BOUNDS pp pp pp
-1.0000000000000000e+01 1.0000000000000000e+01
-1.0000000000000000e+01 1.0000000000000000e+01
-1.0000000000000000e+01 1.0000000000000000e+01
ITEM: ENTRIES index c_angles
1 104.09 
2 80.8353 
3 120.427 
4 118.048 
5 111.833 
6 45.8638 
7 41.3515 
8 124.413 
9 123.954 
10 31.2608 
ITEM: TIMESTEP
70500
ITEM: NUMBER OF ENTRIES
10
ITEM: BOX BOUNDS pp pp pp
-1.0000000000000000e+01 1.0000000000000000e+01
-1.0000000000000000e+01 1.0000000000000000e+01
-1.0000000000000000e+01 1.0000000000000000e+01
ITEM: ENTRIES index c_angles
1 109.755 
2 67.0099 
3 116.545 
4 121.602 
5 115.517 
6 45.8655 
7 47.3651 
8 108.845 
9 122.89 
10 31.8716 
ITEM: TIMESTEP
70600
ITEM: NUMBER OF ENTRIES
10
ITEM: BOX BOUNDS pp pp pp
-1.0000000000000000e+01 1.0000000000000000e+01
-1.0000000000000000e+01 1.0000000000000000e+01
-1.0000000000000000e+01 1.0000000000000000e+01
ITEM: ENTRIES index c_angles
1 100.782 
2 54.3129 
3 118.823 
4 131.759 
5 115.578 
6 44.7162 
7 56.0952 
8 99.126 
9 125.192 
10 35.3811 
ITEM: TIMESTEP
70700
ITEM: NUMBER OF ENTRIES
10
ITEM: BOX BOUNDS pp pp pp
-1.0000000000000000e+01 1.0000000000000000e+01
-1.0000000000000000e+01 1.0000000000000000e+01
-1.0000000000000000e+01 1.0000000000000000e+01
ITEM: ENTRIES index c_angles
1 83.5555 
2 47.1785 
3 123.972 
4 142.138 
5 117.909 
6 39.775 
7 62.6948 
8 91.6069 
9 126.443 
10 42.5934 
ITEM: TIMESTEP
70800
ITEM: NUMBER OF ENTRIES
10
ITEM: BOX BOUNDS pp pp pp
-1.0000000000000000e+01 1.0000000000000000e+01
-1.0000000000000000e+01 1.0000000000000000e+01
-1.0000000000000000e+01 1.0000000000000000e+01
ITEM: ENTRIES index c_angles
1 73.0655 
2 40.2463 
3 129.702 
4 143.824 
5 124.612 
6 31.6983 
7 65.99 
8 84.3477 
9 127.572 
10 47.4259 
ITEM: TIMESTEP
70900
ITEM: NUMBER OF ENTRIES
10
ITEM: BOX BOUNDS pp pp pp
-1.0000000000000000e+01 1.0000000000000000e+01
-1.0000000000000000e+01 1.0000000000000000e+01
-1.0000000000000000e+01 1.0000000000000000e+01
ITEM: ENTRIES index c_angles
1 64.4783 
2 30.7228 
3 132.325 
4 141.263 
5 130.73 
6 33.73 
7 64.9904 
8 78.1445 
9 125.952 
10 49.216 
ITEM: TIMESTEP
71000
ITEM: NUMBER OF ENTRIES
10
ITEM: BOX BOUNDS pp pp pp
-1.0000000000000000e+01 1.0000000000000000e+01
-1.0000000000000000e+01 1.0000000000000000e+01
-1.0000000000000000e+01 1.0000000000000000e+01
ITEM: ENTRIES index c_angles
1 60.949 
2 18.4212 
3 138.043 
4 146.97 
5 137.842 
6 53.5941 
7 65.5447 
8 78.1091 
9 122.085 
10 53.5449 
ITEM: TIMESTEP
71100
ITEM: NUMBER OF ENTRIES
10
ITEM: BOX BOUNDS pp pp pp
-1.0000000000000000e+01 1.0000000000000000e+01
-1.0000000000000000e+01 1.0000000000000000e+01
-1.0000000000000000e+01 1.0000000000000000e+01
ITEM: ENTRIES index c_angles
1 62.4021 
2 12.9932 
3 148.399 
4 156.526 
5 64.7765 
6 143.258 
7 69.1905 
8 61.2047 
9 118.073 
10 82.2175 
ITEM: TIMESTEP
71200
ITEM: NUMBER OF ENTRIES
10
ITEM: BOX BOUNDS pp pp pp
-1.0000000000000000e+01 1.0000000000000000e+01
-1.0000000000000000e+01 1.0000000000000000e+01
-1.0000000000000000e+01 1.0000000000000000e+01
ITEM: ENTRIES index c_angles
1 66.6108 
2 10.8368 
3 153.454 
4 167.256 
5 73.8922 
6 147.741 
7 74.0361 
8 70.3103 
9 105.12 
10 87.5245 
ITEM: TIMESTEP
71300
ITEM: NUMBER OF ENTRIES
10
ITEM: BOX BOUNDS pp pp pp
-1.0000000000000000e+01 1.0000000000000000e+01
-1.0000000000000000e+01 1.0000000000000000e+01
-1.0000000000000000e+01 1.0000000000000000e+01
ITEM: ENTRIES index c_angles
1 72.4189 
2 20.105 
3 156.878 
4 176.48 
5 79.7668 
6 148.927 
7 79.27 
8 76.7754 
9 87.1682 
10 93.9792 
ITEM: TIMESTEP
71400
ITEM: NUMBER OF ENTRIES
10
ITEM: BOX BOUNDS pp pp pp
-1.0000000000000000e+01 1.0000000000000000e+01
-1.0000000000000000e+01 1.0000000000000000e+01
-1.0000000000000000e+01 1.0000000000000000e+01
ITEM: ENTRIES index c_angles
1 77.1754 
2 42.7809 
3 160.551 
4 159.192 
5 80.8462 
6 140.109 
7 84.5006 
8 81.6384 
9 71.3326 
10 98.498 
ITEM: TIMESTEP
71500
ITEM: NUMBER OF ENTRIES
10
ITEM: BOX BOUNDS pp pp pp
-1.0000000000000000e+01 1.0000000000000000e+01
-1.0000000000000000e+01 1.0000000000000000e+01
-1.0000000000000000e+01 1.0000000000000000e+01
ITEM: ENTRIES index c_angles
1 79.6586 
2 72.2606 
3 166.494 
4 143.73 
5 80.7676 
6 136.806 
7 82.9271 
8 83.0155 
9 63.7307 
10 102.687 
ITEM: TIMESTEP
71600
ITEM: NUMBER OF ENTRIES
10
ITEM: BOX BOUNDS pp pp pp
-1.0000000000000000e+01 1.0000000000000000e+01
-1.0000000000000000e+01 1.0000000000000000e+01
-1.0000000000000000e+01 1.0000000000000000e+01
ITEM: ENTRIES index c_angles
1 80.0892 
2 99.8697 
3 159.243 
4 132.459 
5 81.9219 
6 137.266 
7 78.9188 
8 86.1311 
9 58.7087 
10 106.003 
ITEM: TIMESTEP
71700
ITEM: NUMBER OF ENTRIES
10
ITEM: BOX BOUNDS pp pp pp
-1.0000000000000000e+01 1.0000000000000000e+01
-1.0000000000000000e+01 1.0000000000000000e+01
-1.0000000000000000e+01 1.0000000000000000e+01
ITEM: ENTRIES index c_angles
1 70.8553 
2 117.419 
3 154.614 
4 129.142 
5 83.4084 
6 143.946 
7 74.7559 
8 88.3929 
9 56.4388 
10 115.348 
ITEM: TIMESTEP
71800
ITEM: NUMBER OF ENTRIES
10
ITEM: BOX BOUNDS pp pp pp
-1.0000000000000000e+01 1.0000000000000000e+01
-1.0000000000000000e+01 1.0000000000000000e+01
-1.0000000000000000e+01 1.0000000000000000e+01
ITEM: ENTRIES index c_angles
1 63.2165 
2 136.817 
3 152.141 
4 121.819 
5 82.7688 
6 151.265 
7 70.6666 
8 84.0661 
9 59.2834 
10 125.212 
ITEM: TIMESTEP
71900
ITEM: NUMBER OF ENTRIES
10
ITEM: BOX BOUNDS pp pp pp
-1.0000000000000000e+01 1.0000000000000000e+01
-1.0000000000000000e+01 1.0000000000000000e+01
-1.0000000000000000e+01 1.0000000000000000e+01
ITEM: ENTRIES index c_angles
1 58.8732 
2 156.681 
3 152.334 
4 110.834 
5 80.5191 
6 158.352 
7 59.7595 
8 81.6482 
9 64.5565 
10 128.611 
ITEM: TIMESTEP
72000
ITEM: NUMBER OF ENTRIES
10
ITEM: BOX BOUNDS pp pp pp
-1.0000000000000000e+01 1.0000000000000000e+01
-1.0000000000000000e+01 1.0000000000000000e+01
-1.0000000000000000e+01 1.0000000000000000e+01
ITEM: ENTRIES index c_angles
1 52.3659 
2 158.702 
3 155.306 
4 100.331 
5 75.1144 
6 153.714 
7 51.8111 
8 84.7295 
9 68.2002 
10 130.587 
ITEM: TIMESTEP
72100
ITEM: NUMBER OF ENTRIES
10
ITEM: BOX BOUNDS pp pp pp
-1.0000000000000000e+01 1.0000000000000000e+01
-1.0000000000000000e+01 1.0000000000000000e+01
-1.0000000000000000e+01 1.0000000000000000e+01
ITEM: ENTRIES index c_angles
1 46.9973 
2 150.727 
3 162.201 
4 84.8753 
5 62.2646 
6 148.085 
7 45.0371 
8 94.4451 
9 77.8528 
10 134.165 
ITEM: TIMESTEP
72200
ITEM: NUMBER OF ENTRIES
10
ITEM: BOX BOUNDS pp pp pp
-1.0000000000000000e+01 1.0000000000000000e+01
-1.0000000000000000e+01 1.0000000000000000e+01
-1.0000000000000000e+01 1.0000000000000000e+01
ITEM: ENTRIES index c_angles
1 144.013 
2 41.7244 
3 40.9433 
4 167.849 
5 67.192 
6 45.6562 
7 145.261 
8 109.323 
9 90.15 
10 122.026 
ITEM: TIMESTEP
72300
ITEM: NUMBER OF ENTRIES
10
ITEM: BOX BOUNDS pp pp pp
-1.0000000000000000e+01 1.0000000000000000e+01
-1.0000000000000000e+01 1.0000000000000000e+01
-1.0000000000000000e+01 1.0000000000000000e+01
ITEM: ENTRIES index c_angles
1 138.734 
2 39.6482 
3 39.3214 
4 162.317 
5 58.9882 
6 22.1322 
7 142.662 
8 128.317 
9 95.1716 
10 108.484 
ITEM: TIMESTEP
72400
ITEM: NUMBER OF ENTRIES
10
ITEM: BOX BOUNDS pp pp pp
-1.0000000000000000e+01 1.0000000000000000e+01
-1.0000000000000000e+01 1.0000000000000000e+01
-1.0000000000000000e+01 1.0000000000000000e+01
ITEM: ENTRIES index c_angles
1 132.754 
2 37.3527 
3 39.7921 
4 151.518 
5 53.1486 
6 3.71723 
7 141.23 
8 143.331 
9 94.9011 
10 101.774 
ITEM: TIMESTEP
72500
ITEM: NUMBER OF ENTRIES
10
ITEM: BOX BOUNDS pp pp pp
-1.0000000000000000e+01 1.0000000000000000e+01
-1.0000000000000000e+01 1.0000000000000000e+01
-1.0000000000000000e+01 1.0000000000000000e+01
ITEM: ENTRIES index c_angles
1 128.664 
2 35.7585 
3 43.4044 
4 133.419 
5 50.7995 
6 15.2912 
7 140.169 
8 156.897 
9 91.4028 
10 90.9631 
ITEM: TIMESTEP
72600
ITEM: NUMBER OF ENTRIES
10
ITEM: BOX BOUNDS pp pp pp
-1.0000000000000000e+01 1.0000000000000000e+01
-1.0000000000000000e+01 1.0000000000000000e+01
-1.0000000000000000e+01 1.0000000000000000e+01
ITEM: ENTRIES index c_angles
1 130.009 
2 43.3199 
3 46.0598 
4 115.992 
5 50.8628 
6 25.9708 
7 143.552 
8 163.81 
9 80.5325 
10 76.3857 
ITEM: TIMESTEP
72700
ITEM: NUMBER OF ENTRIES
10
ITEM: BOX BOUNDS pp pp pp
-1.0000000000000000e+01 1.0000000000000000e+01
-1.0000000000000000e+01 1.0000000000000000e+01
-1.0000000000000000e+01 1.0000000000000000e+01
ITEM: ENTRIES index c_angles
1 137.971 
2 54.8498 
3 43.6117 
4 105.903 
5 58.6839 
6 33.8785 
7 147.945 
8 142.034 
9 78.026 
10 60.4714 
ITEM: TIMESTEP
72800
ITEM: NUMBER OF ENTRIES
10
ITEM: BOX BOUNDS pp pp pp
-1.0000000000000000e+01 1.0000000000000000e+01
-1.0000000000000000e+01 1.0000000000000000e+01
-1.0000000000000000e+01 1.0000000000000000e+01
ITEM: ENTRIES index c_angles
1 140.752 
2 65.2998 
3 34.3781 
4 96.9111 
5 77.8344 
6 43.9605 
7 151.659 
8 127.249 
9 79.7903 
10 47.684 
ITEM: TIMESTEP
72900
ITEM: NUMBER OF ENTRIES
10
ITEM: BOX BOUNDS pp pp pp
-1.0000000000000000e+01 1.0000000000000000e+01
-1.0000000000000000e+01 1.0000000000000000e+01
-1.0000000000000000e+01 1.0000000000000000e+01
ITEM: ENTRIES index c_angles
1 137.853 
2 76.2484 
3 21.1618 
4 91.9913 
5 97.879 
6 55.6383 
7 153.347 
8 119.927 
9 86.0307 
10 41.4256 
ITEM: TIMESTEP
73000
ITEM: NUMBER OF ENTRIES
10
ITEM: BOX BOUNDS pp pp pp
-1.0000000000000000e+01 1.0000000000000000e+01
-1.0000000000000000e+01 1.0000000000000000e+01
-1.0000000000000000e+01 1.0000000000000000e+01
ITEM: ENTRIES index c_angles
1 136.656 
2 78.5711 
3 13.3863 
4 90.5912 
5 115.643 
6 63.1174 
7 156.131 
8 109.312 
9 96.5858 
10 43.4002 
ITEM: TIMESTEP
73100
ITEM: NUMBER OF ENTRIES
10
ITEM: BOX BOUNDS pp pp pp
-1.0000000000000000e+01 1.0000000000000000e+01
-1.0000000000000000e+01 1.0000000000000000e+01
-1.0000000000000000e+01 1.0000000000000000e+01
ITEM: ENTRIES index c_angles
1 142.91 
2 72.2025 
3 14.2977 
4 93.8256 
5 130.406 
6 69.8501 
7 158.222 
8 97.7135 
9 111.169 
10 48.6868 
ITEM: TIMESTEP
73200
ITEM: NUMBER OF ENTRIES
10
ITEM: BOX BOUNDS pp pp pp
-1.0000000000000000e+01 1.0000000000000000e+01
-1.0000000000000000e+01 1.0000000000000000e+01
-1.0000000000000000e+01 1.0000000000000000e+01
ITEM: ENTRIES index c_angles
1 91.9554 
2 99.4557 
3 145.458 
4 153.239 
5 68.3231 
6 147.888 
7 17.6361 
8 65.0072 
9 54.8873 
10 119.579 
ITEM: TIMESTEP
73300
ITEM: NUMBER OF ENTRIES
10
ITEM: BOX BOUNDS pp pp pp
-1.0000000000000000e+01 1.0000000000000000e+01
-1.0000000000000000e+01 1.0000000000000000e+01
-1.0000000000000000e+01 1.0000000000000000e+01
ITEM: ENTRIES index c_angles
1 91.0691 
2 99.8143 
3 157.173 
4 145.17 
5 61.3602 
6 139.974 
7 22.0382 
8 58.6952 
9 68.0055 
10 120.244 
ITEM: TIMESTEP
73400
ITEM: NUMBER OF ENTRIES
10
ITEM: BOX BOUNDS pp pp pp
-1.0000000000000000e+01 1.0000000000000000e+01
-1.0000000000000000e+01 1.0000000000000000e+01
-1.0000000000000000e+01 1.0000000000000000e+01
ITEM: ENTRIES index c_angles
1 92.8584 
2 94.8419 
3 153.413 
4 134.609 
5 55.177 
6 127.046 
7 28.8502 
8 49.3494 
9 84.1967 
10 115.08 
ITEM: TIMESTEP
73500
ITEM: NUMBER OF ENTRIES
10
ITEM: BOX BOUNDS pp pp pp
-1.0000000000000000e+01 1.0000000000000000e+01
-1.0000000000000000e+01 1.0000000000000000e+01
-1.0000000000000000e+01 1.0000000000000000e+01
ITEM: ENTRIES index c_angles
1 91.6668 
2 88.8176 
3 146.298 
4 118.097 
5 55.0039 
6 114.055 
7 47.0729 
8 37.5087 
9 101.913 
10 107.866 
ITEM: TIMESTEP
73600
ITEM: NUMBER OF ENTRIES
10
ITEM: BOX BOUNDS pp pp pp
-1.0000000000000000e+01 1.0000000000000000e+01
-1.0000000000000000e+01 1.0000000000000000e+01
-1.0000000000000000e+01 1.0000000000000000e+01
ITEM: ENTRIES index c_angles
1 94.915 
2 95.31 
3 142.946 
4 105.065 
5 64.2641 
6 106.214 
7 64.9249 
8 29.7567 
9 114.547 
10 97.102 
ITEM: TIMESTEP
73700
ITEM: NUMBER OF ENTRIES
10
ITEM: BOX BOUNDS pp pp pp
-1.0000000000000000e+01 1.0000000000000000e+01
-1.0000000000000000e+01 1.0000000000000000e+01
-1.0000000000000000e+01 1.0000000000000000e+01
ITEM: ENTRIES index c_angles
1 100.49 
2 109.435 
3 140.719 
4 100.36 
5 77.8718 
6 104.46 
7 79.4307 
8 27.3012 
9 126.518 
10 85.3247 
ITEM: TIMESTEP
73800
ITEM: NUMBER OF ENTRIES
10
ITEM: BOX BOUNDS pp pp pp
-1.0000000000000000e+01 1.0000000000000000e+01
-1.0000000000000000e+01 1.0000000000000000e+01
-1.0000000000000000e+01 1.0000000000000000e+01
ITEM: ENTRIES index c_angles
1 102.752 
2 120.367 
3 141.273 
4 102.734 
5 93.7361 
6 104.643 
7 82.0124 
8 27.8062 
9 126.3 
10 73.8934 
ITEM: TIMESTEP
73900
ITEM: NUMBER OF ENTRIES
10
ITEM: BOX BOUNDS pp pp pp
-1.0000000000000000e+01 1.0000000000000000e+01
-1.0000000000000000e+01 1.0000000000000000e+01
-1.0000000000000000e+01 1.0000000000000000e+01
ITEM: ENTRIES index c_angles
1 102.172 
2 126.434 
3 136.281 
4 114.272 
5 112.047 
6 111.15 
7 73.4785 
8 27.5752 
9 118.009 
10 60.5168 
ITEM: TIMESTEP
74000
ITEM: NUMBER OF ENTRIES
10
ITEM: BOX BOUNDS pp pp pp
-1.0000000000000000e+01 1.0000000000000000e+01
-1.0000000000000000e+01 1.0000000000000000e+01
-1.0000000000000000e+01 1.0000000000000000e+01
ITEM: ENTRIES index c_angles
1 90.4064 
2 124.619 
3 132.274 
4 128.842 
5 131.828 
6 127.387 
7 64.3885 
8 31.5116 
9 108.296 
10 51.8424 
ITEM: TIMESTEP
74100
ITEM: NUMBER OF ENTRIES
10
ITEM: BOX BOUNDS pp pp pp
-1.0000000000000000e+01 1.0000000000000000e+01
-1.0000000000000000e+01 1.0000000000000000e+01
-1.0000000000000000e+01 1.0000000000000000e+01
ITEM: ENTRIES index c_angles
1 79.4151 
2 143.724 
3 118.217 
4 133.854 
5 155.653 
6 149.953 
7 57.0082 
8 33.6869 
9 103.026 
10 44.9836 
ITEM: TIMESTEP
74200
ITEM: NUMBER OF ENTRIES
10
ITEM: BOX BOUNDS pp pp pp
-1.0000000000000000e+01 1.0000000000000000e+01
-1.0000000000000000e+01 1.0000000000000000e+01
-1.0000000000000000e+01 1.0000000000000000e+01
ITEM: ENTRIES index c_angles
1 78.0497 
2 159.77 
3 111.148 
4 140.726 
5 171.605 
6 159.947 
7 50.0233 
8 26.0349 
9 104.36 
10 35.6747 
ITEM: TIMESTEP
74300
ITEM: NUMBER OF ENTRIES
10
ITEM: BOX BOUNDS pp pp pp
-1.0000000000000000e+01 1.0000000000000000e+01
-1.0000000000000000e+01 1.0000000000000000e+01
-1.0000000000000000e+01 1.0000000000000000e+01
ITEM: ENTRIES index c_angles
1 84.7919 
2 159.603 
3 105.76 
4 139.995 
5 153.451 
6 158.804 
7 44.1687 
8 20.6483 
9 108.853 
10 20.9986 
ITEM: TIMESTEP
74400
ITEM: NUMBER OF ENTRIES
10
ITEM: BOX BOUNDS pp pp pp
-1.0000000000000000e+01 1.0000000000000000e+01
-1.0000000000000000e+01 1.0000000000000000e+01
-1.0000000000000000e+01 1.0000000000000000e+01
ITEM: ENTRIES index c_angles
1 101.698 
2 148.253 
3 106.965 
4 135.156 
5 130.349 
6 156.64 
7 37.7527 
8 31.2561 
9 120.436 
10 9.58089 
ITEM: TIMESTEP
74500
ITEM: NUMBER OF ENTRIES
10
ITEM: BOX BOUNDS pp pp pp
-1.0000000000000000e+01 1.0000000000000000e+01
-1.0000000000000000e+01 1.0000000000000000e+01
-1.0000000000000000e+01 1.0000000000000000e+01
ITEM: ENTRIES index c_angles
1 118.053 
2 124.061 
3 104.656 
4 105.66 
5 111.786 
6 158.643 
7 34.5526 
8 48.7918 
9 135.38 
10 15.4048 
ITEM: TIMESTEP
74600
ITEM: NUMBER OF ENTRIES
10
ITEM: BOX BOUNDS pp pp pp
-1.0000000000000000e+01 1.0000000000000000e+01
-1.0000000000000000e+01 1.0000000000000000e+01
-1.0000000000000000e+01 1.0000000000000000e+01
ITEM: ENTRIES index c_angles
1 128.35 
2 101.697 
3 102.348 
4 88.7702 
5 102.409 
6 154.803 
7 36.9694 
8 63.7924 
9 146.278 
10 24.8529 
ITEM: TIMESTEP
74700
ITEM: NUMBER OF ENTRIES
10
ITEM: BOX BOUNDS pp pp pp
-1.0000000000000000e+01 1.0000000000000000e+01
-1.0000000000000000e+01 1.0000000000000000e+01
-1.0000000000000000e+01 1.0000000000000000e+01
ITEM: ENTRIES index c_angles
1 106.206 
2 86.6368 
3 106.599 
4 72.9741 
5 99.191 
6 149.215 
7 40.5747 
8 74.4192 
9 153.301 
10 39.4323 
ITEM: TIMESTEP
74800
ITEM: NUMBER OF ENTRIES
10
ITEM: BOX BOUNDS pp pp pp
-1.0000000000000000e+01 1.0000000000000000e+01
-1.0000000000000000e+01 1.0000000000000000e+01
-1.0000000000000000e+01 1.0000000000000000e+01
ITEM: ENTRIES index c_angles
1 80.3708 
2 80.5294 
3 113.896 
4 52.7733 
5 99.4008 
6 147.839 
7 39.2317 
8 93.3763 
9 152.84 
10 53.2621 
ITEM: TIMESTEP
74900
ITEM: NUMBER OF ENTRIES
10
ITEM: BOX BOUNDS pp pp pp
-1.0000000000000000e+01 1.0000000000000000e+01
-1.0000000000000000e+01 1.0000000000000000e+01
-1.0000000000000000e+01 1.0000000000000000e+01
ITEM: ENTRIES index c_angles
1 79.5477 
2 83.7055 
3 119.079 
4 36.2465 
5 102.157 
6 146.844 
7 38.685 
8 115.667 
9 149.021 
10 70.1856 
ITEM: TIMESTEP
75000
ITEM: NUMBER OF ENTRIES
10
ITEM: BOX BOUNDS pp pp pp
-1.0000000000000000e+01 1.0000000000000000e+01
-1.0000000000000000e+01 1.0000000000000000e+01
-1.0000000000000000e+01 1.0000000000000000e+01
ITEM: ENTRIES index c_angles
1 84.7358 
2 85.8387 
3 125.302 
4 25.8097 
5 106.734 
6 146.967 
7 39.4122 
8 137.074 
9 149.894 
10 82.2586 
ITEM: TIMESTEP
75100
ITEM: NUMBER OF ENTRIES
10
ITEM: BOX BOUNDS pp pp pp
-1.0000000000000000e+01 1.0000000000000000e+01
-1.0000000000000000e+01 1.0000000000000000e+01
-1.0000000000000000e+01 1.0000000000000000e+01
ITEM: ENTRIES index c_angles
1 91.0427 
2 92.2104 
3 132.033 
4 32.0965 
5 102.567 
6 141.052 
7 42.6867 
8 146.321 
9 158.007 
10 91.3336 
ITEM: TIMESTEP
75200
ITEM: NUMBER OF ENTRIES
10
ITEM: BOX BOUNDS pp pp pp
-1.0000000000000000e+01 1.0000000000000000e+01
-1.0000000000000000e+01 1.0000000000000000e+01
-1.0000000000000000e+01 1.0000000000000000e+01
ITEM: ENTRIES index c_angles
1 96.6416 
2 95.5509 
3 137.951 
4 49.3135 
5 91.9896 
6 128.132 
7 49.881 
8 152.762 
9 165.214 
10 93.27 
ITEM: TIMESTEP
75300
ITEM: NUMBER OF ENTRIES
10
ITEM: BOX BOUNDS pp pp pp
-1.0000000000000000e+01 1.0000000000000000e+01
-1.0000000000000000e+01 1.0000000000000000e+01
-1.0000000000000000e+01 1.0000000000000000e+01
ITEM: ENTRIES index c_angles
1 102.316 
2 98.6473 
3 136.468 
4 71.9377 
5 82.5265 
6 117.092 
7 60.8357 
8 155.32 
9 171.314 
10 90.4005 
ITEM: TIMESTEP
75400
ITEM: NUMBER OF ENTRIES
10
ITEM: BOX BOUNDS pp pp pp
-1.0000000000000000e+01 1.0000000000000000e+01
-1.0000000000000000e+01 1.0000000000000000e+01
-1.0000000000000000e+01 1.0000000000000000e+01
ITEM: ENTRIES index c_angles
1 107.259 
2 103.847 
3 127.431 
4 98.8923 
5 75.3123 
6 110.103 
7 71.9391 
8 158.188 
9 156.346 
10 78.2649 
ITEM: TIMESTEP
75500
ITEM: NUMBER OF ENTRIES
10
ITEM: BOX BOUNDS pp pp pp
-1.0000000000000000e+01 1.0000000000000000e+01
-1.0000000000000000e+01 1.0000000000000000e+01
-1.0000000000000000e+01 1.0000000000000000e+01
ITEM: ENTRIES index c_angles
1 111.56 
2 109.826 
3 119.166 
4 127.228 
5 73.2143 
6 102.375 
7 84.8398 
8 152.163 
9 136.901 
10 69.923 
ITEM: TIMESTEP
75600
ITEM: NUMBER OF ENTRIES
10
ITEM: BOX BOUNDS pp pp pp
-1.0000000000000000e+01 1.0000000000000000e+01
-1.0000000000000000e+01 1.0000000000000000e+01
-1.0000000000000000e+01 1.0000000000000000e+01
ITEM: ENTRIES index c_angles
1 116.184 
2 118.041 
3 114.632 
4 150.477 
5 77.0027 
6 94.468 
7 96.5875 
8 139.417 
9 120.088 
10 67.5695 
ITEM: TIMESTEP
75700
ITEM: NUMBER OF ENTRIES
10
ITEM: BOX BOUNDS pp pp pp
-1.0000000000000000e+01 1.0000000000000000e+01
-1.0000000000000000e+01 1.0000000000000000e+01
-1.0000000000000000e+01 1.0000000000000000e+01
ITEM: ENTRIES index c_angles
1 118.298 
2 128.813 
3 119.262 
4 144.794 
5 83.1889 
6 84.4973 
7 98.8124 
8 115.384 
9 110.185 
10 63.7962 
ITEM: TIMESTEP
75800
ITEM: NUMBER OF ENTRIES
10
ITEM: BOX BOUNDS pp pp pp
-1.0000000000000000e+01 1.0000000000000000e+01
-1.0000000000000000e+01 1.0000000000000000e+01
-1.0000000000000000e+01 1.0000000000000000e+01
ITEM: ENTRIES index c_angles
1 121.294 
2 141.513 
3 130.591 
4 133.95 
5 90.0559 
6 71.0057 
7 96.6705 
8 86.3401 
9 107.513 
10 56.4961 
ITEM: TIMESTEP
75900
ITEM: NUMBER OF ENTRIES
10
ITEM: BOX BOUNDS pp pp pp
-1.0000000000000000e+01 1.0000000000000000e+01
-1.0000000000000000e+01 1.0000000000000000e+01
-1.0000000000000000e+01 1.0000000000000000e+01
ITEM: ENTRIES index c_angles
1 120.753 
2 153.884 
3 149.68 
4 129.915 
5 96.2894 
6 60.2169 
7 92.3051 
8 66.8933 
9 103.919 
10 52.6381 
ITEM: TIMESTEP
76000
ITEM: NUMBER OF ENTRIES
10
ITEM: BOX BOUNDS pp pp pp
-1.0000000000000000e+01 1.0000000000000000e+01
-1.0000000000000000e+01 1.0000000000000000e+01
-1.0000000000000000e+01 1.0000000000000000e+01
ITEM: ENTRIES index c_angles
1 121.898 
2 163.126 
3 172.674 
4 132.849 
5 102.36 
6 57.0553 
7 91.0973 
8 55.7772 
9 99.9157 
10 46.5572 
ITEM: TIMESTEP
76100
ITEM: NUMBER OF ENTRIES
10
ITEM: BOX BOUNDS pp pp pp
-1.0000000000000000e+01 1.0000000000000000e+01
-1.0000000000000000e+01 1.0000000000000000e+01
-1.0000000000000000e+01 1.0000000000000000e+01
ITEM: ENTRIES index c_angles
1 131.161 
2 143.008 
3 161.458 
4 140.156 
5 111.659 
6 60.5258 
7 92.464 
8 50.7986 
9 98.5194 
10 36.2641 
ITEM: TIMESTEP
76200
ITEM: NUMBER OF ENTRIES
10
ITEM: BOX BOUNDS pp pp pp
-1.0000000000000000e+01 1.0000000000000000e+01
-1.0000000000000000e+01 1.0000000000000000e+01
-1.0000000000000000e+01 1.0000000000000000e+01
ITEM: ENTRIES index c_angles
1 96.2447 
2 48.4239 
3 122.936 
4 123.921 
5 139.98 
6 156.596 
7 143.836 
8 69.8896 
9 99.8002 
10 30.6401 
ITEM: TIMESTEP
76300
ITEM: NUMBER OF ENTRIES
10
ITEM: BOX BOUNDS pp pp pp
-1.0000000000000000e+01 1.0000000000000000e+01
-1.0000000000000000e+01 1.0000000000000000e+01
-1.0000000000000000e+01 1.0000000000000000e+01
ITEM: ENTRIES index c_angles
1 93.1325 
2 50.502 
3 134.923 
4 114.685 
5 127.465 
6 176.941 
7 149.718 
8 77.8013 
9 98.4336 
10 29.8987 
ITEM: TIMESTEP
76400
ITEM: NUMBER OF ENTRIES
10
ITEM: BOX BOUNDS pp pp pp
-1.0000000000000000e+01 1.0000000000000000e+01
-1.0000000000000000e+01 1.0000000000000000e+01
-1.0000000000000000e+01 1.0000000000000000e+01
ITEM: ENTRIES index c_angles
1 94.373 
2 53.8212 
3 137.657 
4 110.32 
5 119.003 
6 161.453 
7 146.408 
8 80.9396 
9 102.455 
10 28.7732 
ITEM: TIMESTEP
76500
ITEM: NUMBER OF ENTRIES
10
ITEM: BOX BOUNDS pp pp pp
-1.0000000000000000e+01 1.0000000000000000e+01
-1.0000000000000000e+01 1.0000000000000000e+01
-1.0000000000000000e+01 1.0000000000000000e+01
ITEM: ENTRIES index c_angles
1 98.7493 
2 58.6435 
3 132.796 
4 107.003 
5 117.333 
6 149.172 
7 134.302 
8 71.0449 
9 113.503 
10 28.4086 
ITEM: TIMESTEP
76600
ITEM: NUMBER OF ENTRIES
10
ITEM: BOX BOUNDS pp pp pp
-1.0000000000000000e+01 1.0000000000000000e+01
-1.0000000000000000e+01 1.0000000000000000e+01
-1.0000000000000000e+01 1.0000000000000000e+01
ITEM: ENTRIES index c_angles
1 102.073 
2 65.2185 
3 121.986 
4 104.953 
5 119.238 
6 137.014 
7 118.643 
8 60.2895 
9 126.479 
10 31.6077 
ITEM: TIMESTEP
76700
ITEM: NUMBER OF ENTRIES
10
ITEM: BOX BOUNDS pp pp pp
-1.0000000000000000e+01 1.0000000000000000e+01
-1.0000000000000000e+01 1.0000000000000000e+01
-1.0000000000000000e+01 1.0000000000000000e+01
ITEM: ENTRIES index c_angles
1 102.287 
2 74.5471 
3 113.741 
4 107.893 
5 123.473 
6 130.266 
7 103.903 
8 53.791 
9 133.291 
10 38.5723 
ITEM: TIMESTEP
76800
ITEM: NUMBER OF ENTRIES
10
ITEM: BOX BOUNDS pp pp pp
-1.0000000000000000e+01 1.0000000000000000e+01
-1.0000000000000000e+01 1.0000000000000000e+01
-1.0000000000000000e+01 1.0000000000000000e+01
ITEM: ENTRIES index c_angles
1 90.9145 
2 87.4015 
3 110.744 
4 107.681 
5 133.466 
6 130.463 
7 91.395 
8 56.1559 
9 144.695 
10 50.2843 
ITEM: TIMESTEP
76900
ITEM: NUMBER OF ENTRIES
10
ITEM: BOX BOUNDS pp pp pp
-1.0000000000000000e+01 1.0000000000000000e+01
-1.0000000000000000e+01 1.0000000000000000e+01
-1.0000000000000000e+01 1.0000000000000000e+01
ITEM: ENTRIES index c_angles
1 78.1664 
2 94.1235 
3 109.439 
4 103.678 
5 139.3 
6 137.465 
7 82.3019 
8 64.3022 
9 154.408 
10 67.8437 
ITEM: TIMESTEP
77000
ITEM: NUMBER OF ENTRIES
10
ITEM: BOX BOUNDS pp pp pp
-1.0000000000000000e+01 1.0000000000000000e+01
-1.0000000000000000e+01 1.0000000000000000e+01
-1.0000000000000000e+01 1.0000000000000000e+01
ITEM: ENTRIES index c_angles
1 72.7912 
2 91.2297 
3 117.534 
4 97.0815 
5 137.622 
6 141.038 
7 79.527 
8 75.978 
9 157.331 
10 93.0782 
ITEM: TIMESTEP
77100
ITEM: NUMBER OF ENTRIES
10
ITEM: BOX BOUNDS pp pp pp
-1.0000000000000000e+01 1.0000000000000000e+01
-1.0000000000000000e+01 1.0000000000000000e+01
-1.0000000000000000e+01 1.0000000000000000e+01
ITEM: ENTRIES index c_angles
1 64.7809 
2 65.0089 
3 122.587 
4 96.292 
5 130.312 
6 127.101 
7 72.0437 
8 88.245 
9 153.989 
10 106.531 
ITEM: TIMESTEP
77200
ITEM: NUMBER OF ENTRIES
10
ITEM: BOX BOUNDS pp pp pp
-1.0000000000000000e+01 1.0000000000000000e+01
-1.0000000000000000e+01 1.0000000000000000e+01
-1.0000000000000000e+01 1.0000000000000000e+01
ITEM: ENTRIES index c_angles
1 44.7219 
2 59.836 
3 54.8868 
4 117.642 
5 108.768 
6 121.184 
7 99.799 
8 94.1099 
9 139.492 
10 106.122 
ITEM: TIMESTEP
77300
ITEM: NUMBER OF ENTRIES
10
ITEM: BOX BOUNDS pp pp pp
-1.0000000000000000e+01 1.0000000000000000e+01
-1.0000000000000000e+01 1.0000000000000000e+01
-1.0000000000000000e+01 1.0000000000000000e+01
ITEM: ENTRIES index c_angles
1 41.8656 
2 46.1166 
3 45.5699 
4 111.288 
5 94.5861 
6 111.449 
7 102.55 
8 90.9556 
9 117.346 
10 96.7147 
ITEM: TIMESTEP
77400
ITEM: NUMBER OF ENTRIES
10
ITEM: BOX BOUNDS pp pp pp
-1.0000000000000000e+01 1.0000000000000000e+01
-1.0000000000000000e+01 1.0000000000000000e+01
-1.0000000000000000e+01 1.0000000000000000e+01
ITEM: ENTRIES index c_angles
1 42.7547 
2 42.4319 
3 41.0845 
4 107.494 
5 90.0023 
6 108.851 
7 106.895 
8 86.3381 
9 97.5598 
10 88.2328 
ITEM: TIMESTEP
77500
ITEM: NUMBER OF ENTRIES
10
ITEM: BOX BOUNDS pp pp pp
-1.0000000000000000e+01 1.0000000000000000e+01
-1.0000000000000000e+01 1.0000000000000000e+01
-1.0000000000000000e+01 1.0000000000000000e+01
ITEM: ENTRIES index c_angles
1 42.5017 
2 44.2216 
3 34.8856 
4 105.401 
5 91.6851 
6 105.185 
7 112.429 
8 85.4801 
9 83.7687 
10 82.7281 
ITEM: TIMESTEP
77600
ITEM: NUMBER OF ENTRIES
10
ITEM: BOX BOUNDS pp pp pp
-1.0000000000000000e+01 1.0000000000000000e+01
-1.0000000000000000e+01 1.0000000000000000e+01
-1.0000000000000000e+01 1.0000000000000000e+01
ITEM: ENTRIES index c_angles
1 44.2346 
2 46.8338 
3 29.5792 
4 102.8 
5 102.832 
6 99.7746 
7 124.621 
8 83.5356 
9 71.2745 
10 84.257 
ITEM: TIMESTEP
77700
ITEM: NUMBER OF ENTRIES
10
ITEM: BOX BOUNDS pp pp pp
-1.0000000000000000e+01 1.0000000000000000e+01
-1.0000000000000000e+01 1.0000000000000000e+01
-1.0000000000000000e+01 1.0000000000000000e+01
ITEM: ENTRIES index c_angles
1 45.2218 
2 50.3238 
3 27.858 
4 95.9473 
5 121.168 
6 93.2531 
7 141.331 
8 81.0079 
9 61.9167 
10 83.1807 
ITEM: TIMESTEP
77800
ITEM: NUMBER OF ENTRIES
10
ITEM: BOX BOUNDS pp pp pp
-1.0000000000000000e+01 1.0000000000000000e+01
-1.0000000000000000e+01 1.0000000000000000e+01
-1.0000000000000000e+01 1.0000000000000000e+01
ITEM: ENTRIES index c_angles
1 46.6895 
2 55.2552 
3 35.7012 
4 90.3759 
5 149.126 
6 87.2386 
7 157.356 
8 77.5948 
9 57.2477 
10 81.7695 
ITEM: TIMESTEP
77900
ITEM: NUMBER OF ENTRIES
10
ITEM: BOX BOUNDS pp pp pp
-1.0000000000000000e+01 1.0000000000000000e+01
-1.0000000000000000e+01 1.0000000000000000e+01
-1.0000000000000000e+01 1.0000000000000000e+01
ITEM: ENTRIES index c_angles
1 46.0349 
2 56.3873 
3 50.5169 
4 85.6085 
5 166.498 
6 81.5983 
7 161.615 
8 79.1316 
9 55.1579 
10 81.9474 
ITEM: TIMESTEP
78000
ITEM: NUMBER OF ENTRIES
10
ITEM: BOX BOUNDS pp pp pp
-1.0000000000000000e+01 1.0000000000000000e+01
-1.0000000000000000e+01 1.0000000000000000e+01
-1.0000000000000000e+01 1.0000000000000000e+01
ITEM: ENTRIES index c_angles
1 49.7397 
2 53.7753 
3 63.604 
4 77.8021 
5 152.23 
6 80.245 
7 161.388 
8 85.3225 
9 50.7056 
10 90.3299 
ITEM: TIMESTEP
78100
ITEM: NUMBER OF ENTRIES
10
ITEM: BOX BOUNDS pp pp pp
-1.0000000000000000e+01 1.0000000000000000e+01
-1.0000000000000000e+01 1.0000000000000000e+01
-1.0000000000000000e+01 1.0000000000000000e+01
ITEM: ENTRIES index c_angles
1 54.2534 
2 53.2922 
3 60.9782 
4 94.438 
5 138.563 
6 73.2891 
7 78.7833 
8 166.758 
9 45.5933 
10 104.21 
ITEM: TIMESTEP
78200
ITEM: NUMBER OF ENTRIES
10
ITEM: BOX BOUNDS pp pp pp
-1.0000000000000000e+01 1.0000000000000000e+01
-1.0000000000000000e+01 1.0000000000000000e+01
-1.0000000000000000e+01 1.0000000000000000e+01
ITEM: ENTRIES index c_angles
1 55.5827 
2 54.007 
3 57.0897 
4 98.975 
5 130.479 
6 73.1581 
7 76.1768 
8 177.839 
9 41.1974 
10 108.042 
ITEM: TIMESTEP
78300
ITEM: NUMBER OF ENTRIES
10
ITEM: BOX BOUNDS pp pp pp
-1.0000000000000000e+01 1.0000000000000000e+01
-1.0000000000000000e+01 1.0000000000000000e+01
-1.0000000000000000e+01 1.0000000000000000e+01
ITEM: ENTRIES index c_angles
1 55.8779 
2 53.2431 
3 52.8478 
4 97.1485 
5 119.735 
6 81.5815 
7 72.9232 
8 168.767 
9 43.9502 
10 103.129 
ITEM: TIMESTEP
78400
ITEM: NUMBER OF ENTRIES
10
ITEM: BOX BOUNDS pp pp pp
-1.0000000000000000e+01 1.0000000000000000e+01
-1.0000000000000000e+01 1.0000000000000000e+01
-1.0000000000000000e+01 1.0000000000000000e+01
ITEM: ENTRIES index c_angles
1 57.0754 
2 54.4785 
3 49.0289 
4 91.0108 
5 111.296 
6 92.0633 
7 72.4681 
8 157.723 
9 54.8473 
10 89.2383 
ITEM: TIMESTEP
78500
ITEM: NUMBER OF ENTRIES
10
ITEM: BOX BOUNDS pp pp pp
-1.0000000000000000e+01 1.0000000000000000e+01
-1.0000000000000000e+01 1.0000000000000000e+01
-1.0000000000000000e+01 1.0000000000000000e+01
ITEM: ENTRIES index c_angles
1 58.1923 
2 57.0122 
3 47.6336 
4 82.2163 
5 109.699 
6 99.8805 
7 71.9591 
8 150.01 
9 68.8652 
10 71.0439 
ITEM: TIMESTEP
78600
ITEM: NUMBER OF ENTRIES
10
ITEM: BOX BOUNDS pp pp pp
-1.0000000000000000e+01 1.0000000000000000e+01
-1.0000000000000000e+01 1.0000000000000000e+01
-1.0000000000000000e+01 1.0000000000000000e+01
ITEM: ENTRIES index c_angles
1 53.6525 
2 56.0528 
3 47.6573 
4 76.9194 
5 109.506 
6 109.193 
7 73.7578 
8 140.02 
9 88.6281 
10 57.5492 
ITEM: TIMESTEP
78700
ITEM: NUMBER OF ENTRIES
10
ITEM: BOX BOUNDS pp pp pp
-1.0000000000000000e+01 1.0000000000000000e+01
-1.0000000000000000e+01 1.0000000000000000e+01
-1.0000000000000000e+01 1.0000000000000000e+01
ITEM: ENTRIES index c_angles
1 49.1724 
2 58.4862 
3 42.5843 
4 72.6405 
5 103.15 
6 119.454 
7 76.4191 
8 136.401 
9 104.548 
10 51.7917 
ITEM: TIMESTEP
78800
ITEM: NUMBER OF ENTRIES
10
ITEM: BOX BOUNDS pp pp pp
-1.0000000000000000e+01 1.0000000000000000e+01
-1.0000000000000000e+01 1.0000000000000000e+01
-1.0000000000000000e+01 1.0000000000000000e+01
ITEM: ENTRIES index c_angles
1 49.4276 
2 66.941 
3 39.7247 
4 70.2084 
5 92.5687 
6 121.708 
7 81.4137 
8 138.044 
9 118.006 
10 49.0255 
ITEM: TIMESTEP
78900
ITEM: NUMBER OF ENTRIES
10
ITEM: BOX BOUNDS pp pp pp
-1.0000000000000000e+01 1.0000000000000000e+01
-1.0000000000000000e+01 1.0000000000000000e+01
-1.0000000000000000e+01 1.0000000000000000e+01
ITEM: ENTRIES index c_angles
1 53.1917 
2 73.6304 
3 39.5454 
4 69.2345 
5 85.2226 
6 117.03 
7 85.661 
8 139.354 
9 131.158 
10 47.581 
ITEM: TIMESTEP
79000
ITEM: NUMBER OF ENTRIES
10
ITEM: BOX BOUNDS pp pp pp
-1.0000000000000000e+01 1.0000000000000000e+01
-1.0000000000000000e+01 1.0000000000000000e+01
-1.0000000000000000e+01 1.0000000000000000e+01
ITEM: ENTRIES index c_angles
1 57.3418 
2 73.9513 
3 44.7608 
4 70.1685 
5 78.7433 
6 113.999 
7 89.3454 
8 137.706 
9 134.864 
10 44.1823 
ITEM: TIMESTEP
79100
ITEM: NUMBER OF ENTRIES
10
ITEM: BOX BOUNDS pp pp pp
-1.0000000000000000e+01 1.0000000000000000e+01
-1.0000000000000000e+01 1.0000000000000000e+01
-1.0000000000000000e+01 1.0000000000000000e+01
ITEM: ENTRIES index c_angles
1 62.8846 
2 71.5474 
3 63.4259 
4 69.4499 
5 36.7011 
6 73.7242 
7 113.056 
8 88.8775 
9 139.046 
10 135.041 
ITEM: TIMESTEP
79200
ITEM: NUMBER OF ENTRIES
10
ITEM: BOX BOUNDS pp pp pp
-1.0000000000000000e+01 1.0000000000000000e+01
-1.0000000000000000e+01 1.0000000000000000e+01
-1.0000000000000000e+01 1.0000000000000000e+01
ITEM: ENTRIES index c_angles
1 88.8661 
2 70.7188 
3 69.7088 
4 69.2024 
5 26.7986 
6 74.4236 
7 117.065 
8 86.157 
9 140.729 
10 135.19 
ITEM: TIMESTEP
79300
ITEM: NUMBER OF ENTRIES
10
ITEM: BOX BOUNDS pp pp pp
-1.0000000000000000e+01 1.0000000000000000e+01
-1.0000000000000000e+01 1.0000000000000000e+01
-1.0000000000000000e+01 1.0000000000000000e+01
ITEM: ENTRIES index c_angles
1 116.737 
2 72.4872 
3 74.3272 
4 72.8192 
5 24.0447 
6 76.035 
7 120.952 
8 89.0818 
9 139.315 
10 131.812 
ITEM: TIMESTEP
79400
ITEM: NUMBER OF ENTRIES
10
ITEM: BOX BOUNDS pp pp pp
-1.0000000000000000e+01 1.0000000000000000e+01
-1.0000000000000000e+01 1.0000000000000000e+01
-1.0000000000000000e+01 1.0000000000000000e+01
ITEM: ENTRIES index c_angles
1 133.948 
2 73.9946 
3 75.2009 
4 79.9486 
5 31.1713 
6 77.2217 
7 123.116 
8 92.3321 
9 136.834 
10 127.743 
ITEM: TIMESTEP
79500
ITEM: NUMBER OF ENTRIES
10
ITEM: BOX BOUNDS pp pp pp
-1.0000000000000000e+01 1.0000000000000000e+01
-1.0000000000000000e+01 1.0000000000000000e+01
-1.0000000000000000e+01 1.0000000000000000e+01
ITEM: ENTRIES index c_angles
1 142.772 
2 77.9407 
3 76.8416 
4 90.7975 
5 44.6485 
6 71.2231 
7 118.968 
8 93.9978 
9 132.734 
10 128.706 
ITEM: TIMESTEP
79600
ITEM: NUMBER OF ENTRIES
10
ITEM: BOX BOUNDS pp pp pp
-1.0000000000000000e+01 1.0000000000000000e+01
-1.0000000000000000e+01 1.0000000000000000e+01
-1.0000000000000000e+01 1.0000000000000000e+01
ITEM: ENTRIES index c_angles
1 142.646 
2 82.0806 
3 81.052 
4 99.3556 
5 64.6549 
6 62.7875 
7 113.378 
8 91.692 
9 129.651 
10 135.605 
ITEM: TIMESTEP
79700
ITEM: NUMBER OF ENTRIES
10
ITEM: BOX BOUNDS pp pp pp
-1.0000000000000000e+01 1.0000000000000000e+01
-1.0000000000000000e+01 1.0000000000000000e+01
-1.0000000000000000e+01 1.0000000000000000e+01
ITEM: ENTRIES index c_angles
1 128.923 
2 95.6892 
3 92.123 
4 105.675 
5 72.4904 
6 58.584 
7 113.786 
8 84.4614 
9 122.34 
10 142.525 
ITEM: TIMESTEP
79800
ITEM: NUMBER OF ENTRIES
10
ITEM: BOX BOUNDS pp pp pp
-1.0000000000000000e+01 1.0000000000000000e+01
-1.0000000000000000e+01 1.0000000000000000e+01
-1.0000000000000000e+01 1.0000000000000000e+01
ITEM: ENTRIES index c_angles
1 112.518 
2 111.247 
3 110.669 
4 113.993 
5 73.4125 
6 61.4391 
7 116.651 
8 85.4461 
9 112.578 
10 133.809 
ITEM: TIMESTEP
79900
ITEM: NUMBER OF ENTRIES
10
ITEM: BOX BOUNDS pp pp pp
-1.0000000000000000e+01 1.0000000000000000e+01
-1.0000000000000000e+01 1.0000000000000000e+01
-1.0000000000000000e+01 1.0000000000000000e+01
ITEM: ENTRIES index c_angles
1 105.61 
2 126.049 
3 136.809 
4 127.943 
5 77.4767 
6 67.5906 
7 123.056 
8 89.075 
9 101.933 
10 121.304 
ITEM: TIMESTEP
80000
ITEM: NUMBER OF ENTRIES
10
ITEM: BOX BOUNDS pp pp pp
-1.0000000000000000e+01 1.0000000000000000e+01
-1.0000000000000000e+01 1.0000000000000000e+01
-1.0000000000000000e+01 1.0000000000000000e+01
ITEM: ENTRIES index c_angles
1 106.921 
2 141.723 
3 135.287 
4 141.738 
5 78.5208 
6 81.4758 
7 126.504 
8 100.626 
9 89.0323 
10 108.645 
ITEM: TIMESTEP
80100
ITEM: NUMBER OF ENTRIES
10
ITEM: BOX BOUNDS pp pp pp
-1.0000000000000000e+01 1.0000000000000000e+01
-1.0000000000000000e+01 1.0000000000000000e+01
-1.0000000000000000e+01 1.0000000000000000e+01
ITEM: ENTRIES index c_angles
1 114.869 
2 153.274 
3 112.848 
4 152.886 
5 78.5047 
6 95.8898 
7 134.445 
8 111.878 
9 71.4378 
10 97.337 
ITEM: TIMESTEP
80200
ITEM: NUMBER OF ENTRIES
10
ITEM: BOX BOUNDS pp pp pp
-1.0000000000000000e+01 1.0000000000000000e+01
-1.0000000000000000e+01 1.0000000000000000e+01
-1.0000000000000000e+01 1.0000000000000000e+01
ITEM: ENTRIES index c_angles
1 117.715 
2 94.8364 
3 156.117 
4 114.718 
5 137.941 
6 118.657 
7 56.0735 
8 150.34 
9 81.9106 
10 92.1722 
ITEM: TIMESTEP
80300
ITEM: NUMBER OF ENTRIES
10
ITEM: BOX BOUNDS pp pp pp
-1.0000000000000000e+01 1.0000000000000000e+01
-1.0000000000000000e+01 1.0000000000000000e+01
-1.0000000000000000e+01 1.0000000000000000e+01
ITEM: ENTRIES index c_angles
1 119.508 
2 90.3498 
3 155.855 
4 135.628 
5 137.479 
6 119.189 
7 49.648 
8 132.446 
9 84.8964 
10 87.6028 
ITEM: TIMESTEP
80400
ITEM: NUMBER OF ENTRIES
10
ITEM: BOX BOUNDS pp pp pp
-1.0000000000000000e+01 1.0000000000000000e+01
-1.0000000000000000e+01 1.0000000000000000e+01
-1.0000000000000000e+01 1.0000000000000000e+01
ITEM: ENTRIES index c_angles
1 117.174 
2 88.5188 
3 150.91 
4 153.935 
5 137.918 
6 119.49 
7 48.1484 
8 106.781 
9 85.3741 
10 79.3598 
ITEM: TIMESTEP
80500
ITEM: NUMBER OF ENTRIES
10
ITEM: BOX BOUNDS pp pp pp
-1.0000000000000000e+01 1.0000000000000000e+01
-1.0000000000000000e+01 1.0000000000000000e+01
-1.0000000000000000e+01 1.0000000000000000e+01
ITEM: ENTRIES index c_angles
1 110.058 
2 87.3406 
3 147.52 
4 172.812 
5 134.229 
6 119.335 
7 49.7142 
8 85.2723 
9 81.4643 
10 72.4478 
ITEM: TIMESTEP
80600
ITEM: NUMBER OF ENTRIES
10
ITEM: BOX BOUNDS pp pp pp
-1.0000000000000000e+01 1.0000000000000000e+01
-1.0000000000000000e+01 1.0000000000000000e+01
-1.0000000000000000e+01 1.0000000000000000e+01
ITEM: ENTRIES index c_angles
1 98.4172 
2 88.1392 
3 134.666 
4 175.143 
5 128.62 
6 119.13 
7 51.9873 
8 69.0338 
9 73.7033 
10 67.7679 
ITEM: TIMESTEP
80700
ITEM: NUMBER OF ENTRIES
10
ITEM: BOX BOUNDS pp pp pp
-1.0000000000000000e+01 1.0000000000000000e+01
-1.0000000000000000e+01 1.0000000000000000e+01
-1.0000000000000000e+01 1.0000000000000000e+01
ITEM: ENTRIES index c_angles
1 90.5135 
2 88.9758 
3 115.495 
4 166.408 
5 120.117 
6 120.184 
7 56.4924 
8 59.1229 
9 61.4211 
10 65.0576 
ITEM: TIMESTEP
80800
ITEM: NUMBER OF ENTRIES
10
ITEM: BOX BOUNDS pp pp pp
-1.0000000000000000e+01 1.0000000000000000e+01
-1.0000000000000000e+01 1.0000000000000000e+01
-1.0000000000000000e+01 1.0000000000000000e+01
ITEM: ENTRIES index c_angles
1 87.4534 
2 95.048 
3 99.2754 
4 155.598 
5 112.756 
6 128.05 
7 67.5611 
8 55.0573 
9 39.2944 
10 53.3591 
ITEM: TIMESTEP
80900
ITEM: NUMBER OF ENTRIES
10
ITEM: BOX BOUNDS pp pp pp
-1.0000000000000000e+01 1.0000000000000000e+01
-1.0000000000000000e+01 1.0000000000000000e+01
-1.0000000000000000e+01 1.0000000000000000e+01
ITEM: ENTRIES index c_angles
1 82.8872 
2 103.656 
3 83.4749 
4 151.642 
5 108.346 
6 141.123 
7 75.8797 
8 53.4228 
9 29.3317 
10 39.5969 
ITEM: TIMESTEP
81000
ITEM: NUMBER OF ENTRIES
10
ITEM: BOX BOUNDS pp pp pp
-1.0000000000000000e+01 1.0000000000000000e+01
-1.0000000000000000e+01 1.0000000000000000e+01
-1.0000000000000000e+01 1.0000000000000000e+01
ITEM: ENTRIES index c_angles
1 81.2804 
2 116.877 
3 67.2779 
4 149.421 
5 102.691 
6 161.131 
7 71.4675 
8 52.0605 
9 36.9773 
10 29.5681 
ITEM: TIMESTEP
81100
ITEM: NUMBER OF ENTRIES
10
ITEM: BOX BOUNDS pp pp pp
-1.0000000000000000e+01 1.0000000000000000e+01
-1.0000000000000000e+01 1.0000000000000000e+01
-1.0000000000000000e+01 1.0000000000000000e+01
ITEM: ENTRIES index c_angles
1 83.6076 
2 128.132 
3 55.5193 
4 146.871 
5 100.742 
6 153.011 
7 64.516 
8 53.3657 
9 48.3605 
10 23.8489 
ITEM: TIMESTEP
81200
ITEM: NUMBER OF ENTRIES
10
ITEM: BOX BOUNDS pp pp pp
-1.0000000000000000e+01 1.0000000000000000e+01
-1.0000000000000000e+01 1.0000000000000000e+01
-1.0000000000000000e+01 1.0000000000000000e+01
ITEM: ENTRIES index c_angles
1 59.4337 
2 86.554 
3 45.7597 
4 142.1 
5 102.845 
6 120.164 
7 62.1442 
8 139.01 
9 60.9891 
10 27.1675 
ITEM: TIMESTEP
81300
ITEM: NUMBER OF ENTRIES
10
ITEM: BOX BOUNDS pp pp pp
-1.0000000000000000e+01 1.0000000000000000e+01
-1.0000000000000000e+01 1.0000000000000000e+01
-1.0000000000000000e+01 1.0000000000000000e+01
ITEM: ENTRIES index c_angles
1 71.1873 
2 94.2868 
3 36.3954 
4 140.024 
5 107.369 
6 89.2667 
7 59.7369 
8 146.886 
9 79.7384 
10 38.1779 
ITEM: TIMESTEP
81400
ITEM: NUMBER OF ENTRIES
10
ITEM: BOX BOUNDS pp pp pp
-1.0000000000000000e+01 1.0000000000000000e+01
-1.0000000000000000e+01 1.0000000000000000e+01
-1.0000000000000000e+01 1.0000000000000000e+01
ITEM: ENTRIES index c_angles
1 77.6776 
2 107.703 
3 26.2114 
4 137.473 
5 116.244 
6 67.4572 
7 61.1243 
8 149.263 
9 106.267 
10 55.2407 
ITEM: TIMESTEP
81500
ITEM: NUMBER OF ENTRIES
10
ITEM: BOX BOUNDS pp pp pp
-1.0000000000000000e+01 1.0000000000000000e+01
-1.0000000000000000e+01 1.0000000000000000e+01
-1.0000000000000000e+01 1.0000000000000000e+01
ITEM: ENTRIES index c_angles
1 51.1892 
2 128.901 
3 20.9562 
4 129.733 
5 132.604 
6 60.917 
7 65.1975 
8 147.722 
9 134.933 
10 75.0993 
ITEM: TIMESTEP
81600
ITEM: NUMBER OF ENTRIES
10
ITEM: BOX BOUNDS pp pp pp
-1.0000000000000000e+01 1.0000000000000000e+01
-1.0000000000000000e+01 1.0000000000000000e+01
-1.0000000000000000e+01 1.0000000000000000e+01
ITEM: ENTRIES index c_angles
1 32.8802 
2 147.715 
3 23.2291 
4 128.316 
5 141.579 
6 55.4158 
7 74.0044 
8 132.336 
9 164.37 
10 93.5025 
ITEM: TIMESTEP
81700
ITEM: NUMBER OF ENTRIES
10
ITEM: BOX BOUNDS pp pp pp
-1.0000000000000000e+01 1.0000000000000000e+01
-1.0000000000000000e+01 1.0000000000000000e+01
-1.0000000000000000e+01 1.0000000000000000e+01
ITEM: ENTRIES index c_angles
1 23.9401 
2 156.593 
3 19.3458 
4 127.892 
5 133.459 
6 46.0874 
7 87.2603 
8 122.603 
9 171.531 
10 104.663 
ITEM: TIMESTEP
81800
ITEM: NUMBER OF ENTRIES
10
ITEM: BOX BOUNDS pp pp pp
-1.0000000000000000e+01 1.0000000000000000e+01
-1.0000000000000000e+01 1.0000000000000000e+01
-1.0000000000000000e+01 1.0000000000000000e+01
ITEM: ENTRIES index c_angles
1 18.2489 
2 142.533 
3 12.2322 
4 128.129 
5 118.448 
6 37.2762 
7 103.707 
8 113.697 
9 154.586 
10 113.656 
ITEM: TIMESTEP
81900
ITEM: NUMBER OF ENTRIES
10
ITEM: BOX BOUNDS pp pp pp
-1.0000000000000000e+01 1.0000000000000000e+01
-1.0000000000000000e+01 1.0000000000000000e+01
-1.0000000000000000e+01 1.0000000000000000e+01
ITEM: ENTRIES index c_angles
1 15.0578 
2 127.303 
3 10.0226 
4 122.974 
5 94.4471 
6 30.6067 
7 117.921 
8 104.634 
9 144.034 
10 126.195 
ITEM: TIMESTEP
82000
ITEM: NUMBER OF ENTRIES
10
ITEM: BOX BOUNDS pp pp pp
-1.0000000000000000e+01 1.0000000000000000e+01
-1.0000000000000000e+01 1.0000000000000000e+01
-1.0000000000000000e+01 1.0000000000000000e+01
ITEM: ENTRIES index c_angles
1 17.705 
2 105.518 
3 19.9903 
4 112.134 
5 79.4801 
6 27.0765 
7 119.989 
8 99.4138 
9 142.155 
10 142.728 
ITEM: TIMESTEP
82100
ITEM: NUMBER OF ENTRIES
10
ITEM: BOX BOUNDS pp pp pp
-1.0000000000000000e+01 1.0000000000000000e+01
-1.0000000000000000e+01 1.0000000000000000e+01
-1.0000000000000000e+01 1.0000000000000000e+01
ITEM: ENTRIES index c_angles
1 95.9776 
2 72.596 
3 26.6655 
4 112.059 
5 25.7272 
6 88.712 
7 36.8997 
8 92.7316 
9 142.152 
10 163.738 
ITEM: TIMESTEP
82200
ITEM: NUMBER OF ENTRIES
10
ITEM: BOX BOUNDS pp pp pp
-1.0000000000000000e+01 1.0000000000000000e+01
-1.0000000000000000e+01 1.0000000000000000e+01
-1.0000000000000000e+01 1.0000000000000000e+01
ITEM: ENTRIES index c_angles
1 81.3832 
2 67.0973 
3 30.175 
4 99.1032 
5 48.8186 
6 81.222 
7 54.0268 
8 86.2405 
9 138.334 
10 174.374 
ITEM: TIMESTEP
82300
ITEM: NUMBER OF ENTRIES
10
ITEM: BOX BOUNDS pp pp pp
-1.0000000000000000e+01 1.0000000000000000e+01
-1.0000000000000000e+01 1.0000000000000000e+01
-1.0000000000000000e+01 1.0000000000000000e+01
ITEM: ENTRIES index c_angles
1 70.6093 
2 65.3342 
3 38.6833 
4 95.2048 
5 67.3959 
6 81.398 
7 71.671 
8 83.9637 
9 128.048 
10 158.515 
ITEM: TIMESTEP
82400
ITEM: NUMBER OF ENTRIES
10
ITEM: BOX BOUNDS pp pp pp
-1.0000000000000000e+01 1.0000000000000000e+01
-1.0000000000000000e+01 1.0000000000000000e+01
-1.0000000000000000e+01 1.0000000000000000e+01
ITEM: ENTRIES index c_angles
1 60.0401 
2 70.7378 
3 49.8181 
4 99.3413 
5 67.1965 
6 84.1164 
7 83.4156 
8 84.9057 
9 117.152 
10 145.035 
ITEM: TIMESTEP
82500
ITEM: NUMBER OF ENTRIES
10
ITEM: BOX BOUNDS pp pp pp
-1.0000000000000000e+01 1.0000000000000000e+01
-1.0000000000000000e+01 1.0000000000000000e+01
-1.0000000000000000e+01 1.0000000000000000e+01
ITEM: ENTRIES index c_angles
1 49.5257 
2 79.4617 
3 60.207 
4 108.166 
5 55.2454 
6 87.2259 
7 89.7573 
8 83.6908 
9 115.344 
10 127.994 
ITEM: TIMESTEP
82600
ITEM: NUMBER OF ENTRIES
10
ITEM: BOX BOUNDS pp pp pp
-1.0000000000000000e+01 1.0000000000000000e+01
-1.0000000000000000e+01 1.0000000000000000e+01
-1.0000000000000000e+01 1.0000000000000000e+01
ITEM: ENTRIES index c_angles
1 42.5752 
2 90.9673 
3 73.7159 
4 118.744 
5 51.1879 
6 89.7926 
7 92.6995 
8 82.8907 
9 109.579 
10 109.706 
ITEM: TIMESTEP
82700
ITEM: NUMBER OF ENTRIES
10
ITEM: BOX BOUNDS pp pp pp
-1.0000000000000000e+01 1.0000000000000000e+01
-1.0000000000000000e+01 1.0000000000000000e+01
-1.0000000000000000e+01 1.0000000000000000e+01
ITEM: ENTRIES index c_angles
1 38.8209 
2 96.9831 
3 86.6523 
4 116.381 
5 49.3367 
6 93.8758 
7 100.105 
8 84.8376 
9 104.61 
10 92.4599 
ITEM: TIMESTEP
82800
ITEM: NUMBER OF ENTRIES
10
ITEM: BOX BOUNDS pp pp pp
-1.0000000000000000e+01 1.0000000000000000e+01
-1.0000000000000000e+01 1.0000000000000000e+01
-1.0000000000000000e+01 1.0000000000000000e+01
ITEM: ENTRIES index c_angles
1 34.1565 
2 96.3109 
3 99.6667 
4 101.222 
5 48.547 
6 100.063 
7 112.364 
8 92.4095 
9 103.597 
10 79.9173 
ITEM: TIMESTEP
82900
ITEM: NUMBER OF ENTRIES
10
ITEM: BOX BOUNDS pp pp pp
-1.0000000000000000e+01 1.0000000000000000e+01
-1.0000000000000000e+01 1.0000000000000000e+01
-1.0000000000000000e+01 1.0000000000000000e+01
ITEM: ENTRIES index c_angles
1 31.6539 
2 90.239 
3 110.717 
4 89.6387 
5 51.4516 
6 105.858 
7 129.47 
8 102.608 
9 108.859 
10 68.5244 
ITEM: TIMESTEP
83000
ITEM: NUMBER OF ENTRIES
10
ITEM: BOX BOUNDS pp pp pp
-1.0000000000000000e+01 1.0000000000000000e+01
-1.0000000000000000e+01 1.0000000000000000e+01
-1.0000000000000000e+01 1.0000000000000000e+01
ITEM: ENTRIES index c_angles
1 32.3559 
2 81.7797 
3 120.632 
4 81.3216 
5 65.8909 
6 110.787 
7 146.922 
8 117.595 
9 111.158 
10 63.338 
ITEM: TIMESTEP
83100
ITEM: NUMBER OF ENTRIES
10
ITEM: BOX BOUNDS pp pp pp
-1.0000000000000000e+01 1.0000000000000000e+01
-1.0000000000000000e+01 1.0000000000000000e+01
-1.0000000000000000e+01 1.0000000000000000e+01
ITEM: ENTRIES index c_angles
1 76.2232 
2 128.882 
3 36.46 
4 75.8085 
5 90.2632 
6 108.54 
7 157.52 
8 128.506 
9 61.9825 
10 111.755 
ITEM: TIMESTEP
83200
ITEM: NUMBER OF ENTRIES
10
ITEM: BOX BOUNDS pp pp pp
-1.0000000000000000e+01 1.0000000000000000e+01
-1.0000000000000000e+01 1.0000000000000000e+01
-1.0000000000000000e+01 1.0000000000000000e+01
ITEM: ENTRIES index c_angles
1 74.8418 
2 132.566 
3 38.6114 
4 68.5466 
5 109.093 
6 94.7509 
7 153.764 
8 128.312 
9 57.3217 
10 107.958 
ITEM: TIMESTEP
83300
ITEM: NUMBER OF ENTRIES
10
ITEM: BOX BOUNDS pp pp pp
-1.0000000000000000e+01 1.0000000000000000e+01
-1.0000000000000000e+01 1.0000000000000000e+01
-1.0000000000000000e+01 1.0000000000000000e+01
ITEM: ENTRIES index c_angles
1 77.4608 
2 130.522 
3 40.0659 
4 64.5776 
5 116.692 
6 76.9204 
7 142.307 
8 124.284 
9 49.4422 
10 96.7831 
ITEM: TIMESTEP
83400
ITEM: NUMBER OF ENTRIES
10
ITEM: BOX BOUNDS pp pp pp
-1.0000000000000000e+01 1.0000000000000000e+01
-1.0000000000000000e+01 1.0000000000000000e+01
-1.0000000000000000e+01 1.0000000000000000e+01
ITEM: ENTRIES index c_angles
1 79.2079 
2 125.313 
3 46.0995 
4 62.9007 
5 102.637 
6 62.7587 
7 123.444 
8 117.826 
9 45.506 
10 80.2117 
ITEM: TIMESTEP
83500
ITEM: NUMBER OF ENTRIES
10
ITEM: BOX BOUNDS pp pp pp
-1.0000000000000000e+01 1.0000000000000000e+01
-1.0000000000000000e+01 1.0000000000000000e+01
-1.0000000000000000e+01 1.0000000000000000e+01
ITEM: ENTRIES index c_angles
1 83.1735 
2 121.972 
3 64.7316 
4 62.3967 
5 86.3964 
6 55.6103 
7 106.408 
8 116.062 
9 51.365 
10 62.6313 
ITEM: TIMESTEP
83600
ITEM: NUMBER OF ENTRIES
10
ITEM: BOX BOUNDS pp pp pp
-1.0000000000000000e+01 1.0000000000000000e+01
-1.0000000000000000e+01 1.0000000000000000e+01
-1.0000000000000000e+01 1.0000000000000000e+01
ITEM: ENTRIES index c_angles
1 85.5832 
2 116.316 
3 76.3302 
4 61.4303 
5 75.3905 
6 54.6628 
7 98.5928 
8 115.505 
9 65.5863 
10 51.1121 
ITEM: TIMESTEP
83700
ITEM: NUMBER OF ENTRIES
10
ITEM: BOX BOUNDS pp pp pp
-1.0000000000000000e+01 1.0000000000000000e+01
-1.0000000000000000e+01 1.0000000000000000e+01
-1.0000000000000000e+01 1.0000000000000000e+01
ITEM: ENTRIES index c_angles
1 85.3891 
2 101.919 
3 86.9692 
4 52.2569 
5 69.1402 
6 55.2333 
7 95.9552 
8 125.114 
9 77.0862 
10 44.6601 
ITEM: TIMESTEP
83800
ITEM: NUMBER OF ENTRIES
10
ITEM: BOX BOUNDS pp pp pp
-1.0000000000000000e+01 1.0000000000000000e+01
-1.0000000000000000e+01 1.0000000000000000e+01
-1.0000000000000000e+01 1.0000000000000000e+01
ITEM: ENTRIES index c_angles
1 78.3256 
2 80.4539 
3 89.6877 
4 41.3145 
5 69.1932 
6 60.8242 
7 97.9123 
8 135.521 
9 84.0159 
10 41.9209 
ITEM: TIMESTEP
83900
ITEM: NUMBER OF ENTRIES
10
ITEM: BOX BOUNDS pp pp pp
-1.0000000000000000e+01 1.0000000000000000e+01
-1.0000000000000000e+01 1.0000000000000000e+01
-1.0000000000000000e+01 1.0000000000000000e+01
ITEM: ENTRIES index c_angles
1 70.0662 
2 59.0244 
3 93.0224 
4 39.097 
5 71.8506 
6 66.4253 
7 99.8683 
8 146.708 
9 90.9107 
10 46.4695 
ITEM: TIMESTEP
84000
ITEM: NUMBER OF ENTRIES
10
ITEM: BOX BOUNDS pp pp pp
-1.0000000000000000e+01 1.0000000000000000e+01
-1.0000000000000000e+01 1.0000000000000000e+01
-1.0000000000000000e+01 1.0000000000000000e+01
ITEM: ENTRIES index c_angles
1 65.7105 
2 31.6923 
3 95.1185 
4 41.646 
5 72.3603 
6 73.342 
7 97.0632 
8 164.61 
9 93.9754 
10 54.4464 
ITEM: TIMESTEP
84100
ITEM: NUMBER OF ENTRIES
10
ITEM: BOX BOUNDS pp pp pp
-1.0000000000000000e+01 1.0000000000000000e+01
-1.0000000000000000e+01 1.0000000000000000e+01
-1.0000000000000000e+01 1.0000000000000000e+01
ITEM: ENTRIES index c_angles
1 64.926 
2 10.7702 
3 51.1574 
4 94.7427 
5 159.742 
6 73.3871 
7 76.1954 
8 94.2362 
9 95.597 
10 67.0035 
ITEM: TIMESTEP
84200
ITEM: NUMBER OF ENTRIES
10
ITEM: BOX BOUNDS pp pp pp
-1.0000000000000000e+01 1.0000000000000000e+01
-1.0000000000000000e+01 1.0000000000000000e+01
-1.0000000000000000e+01 1.0000000000000000e+01
ITEM: ENTRIES index c_angles
1 68.5268 
2 15.5255 
3 63.1303 
4 85.1265 
5 132.749 
6 78.2711 
7 79.4119 
8 89.2345 
9 99.7581 
10 81.1503 
ITEM: TIMESTEP
84300
ITEM: NUMBER OF ENTRIES
10
ITEM: BOX BOUNDS pp pp pp
-1.0000000000000000e+01 1.0000000000000000e+01
-1.0000000000000000e+01 1.0000000000000000e+01
-1.0000000000000000e+01 1.0000000000000000e+01
ITEM: ENTRIES index c_angles
1 77.5318 
2 21.7176 
3 76.2982 
4 74.4473 
5 105.772 
6 82.4094 
7 79.0182 
8 77.0195 
9 100.714 
10 97.5803 
ITEM: TIMESTEP
84400
ITEM: NUMBER OF ENTRIES
10
ITEM: BOX BOUNDS pp pp pp
-1.0000000000000000e+01 1.0000000000000000e+01
-1.0000000000000000e+01 1.0000000000000000e+01
-1.0000000000000000e+01 1.0000000000000000e+01
ITEM: ENTRIES index c_angles
1 98.1558 
2 25.5275 
3 83.6682 
4 73.6689 
5 83.9109 
6 78.6713 
7 82.0729 
8 68.3099 
9 100.694 
10 118.415 
ITEM: TIMESTEP
84500
ITEM: NUMBER OF ENTRIES
10
ITEM: BOX BOUNDS pp pp pp
-1.0000000000000000e+01 1.0000000000000000e+01
-1.0000000000000000e+01 1.0000000000000000e+01
-1.0000000000000000e+01 1.0000000000000000e+01
ITEM: ENTRIES index c_angles
1 120.299 
2 30.5039 
3 84.8276 
4 73.743 
5 68.6107 
6 64.28 
7 91.4125 
8 64.6568 
9 101.325 
10 143.261 
ITEM: TIMESTEP
84600
ITEM: NUMBER OF ENTRIES
10
ITEM: BOX BOUNDS pp pp pp
-1.0000000000000000e+01 1.0000000000000000e+01
-1.0000000000000000e+01 1.0000000000000000e+01
-1.0000000000000000e+01 1.0000000000000000e+01
ITEM: ENTRIES index c_angles
1 134.43 
2 43.1047 
3 85.0514 
4 69.9406 
5 62.6381 
6 54.7494 
7 97.1048 
8 67.441 
9 104.013 
10 173.583 
ITEM: TIMESTEP
84700
ITEM: NUMBER OF ENTRIES
10
ITEM: BOX BOUNDS pp pp pp
-1.0000000000000000e+01 1.0000000000000000e+01
-1.0000000000000000e+01 1.0000000000000000e+01
-1.0000000000000000e+01 1.0000000000000000e+01
ITEM: ENTRIES index c_angles
1 142.863 
2 68.5996 
3 76.5983 
4 57.8935 
5 63.5866 
6 57.0111 
7 96.0689 
8 74.8725 
9 110.537 
10 155.868 
ITEM: TIMESTEP
84800
ITEM: NUMBER OF ENTRIES
10
ITEM: BOX BOUNDS pp pp pp
-1.0000000000000000e+01 1.0000000000000000e+01
-1.0000000000000000e+01 1.0000000000000000e+01
-1.0000000000000000e+01 1.0000000000000000e+01
ITEM: ENTRIES index c_angles
1 143.704 
2 94.3557 
3 71.5358 
4 46.9345 
5 67.5087 
6 72.7618 
7 97.5942 
8 85.8927 
9 120.154 
10 132.791 
ITEM: TIMESTEP
84900
ITEM: NUMBER OF ENTRIES
10
ITEM: BOX BOUNDS pp pp pp
-1.0000000000000000e+01 1.0000000000000000e+01
-1.0000000000000000e+01 1.0000000000000000e+01
-1.0000000000000000e+01 1.0000000000000000e+01
ITEM: ENTRIES index c_angles
1 137.981 
2 93.3274 
3 62.6142 
4 43.3689 
5 71.4666 
6 86.5963 
7 101.023 
8 85.7881 
9 119.291 
10 110.433 
ITEM: TIMESTEP
85000
ITEM: NUMBER OF ENTRIES
10
ITEM: BOX BOUNDS pp pp pp
-1.0000000000000000e+01 1.0000000000000000e+01
-1.0000000000000000e+01 1.0000000000000000e+01
-1.0000000000000000e+01 1.0000000000000000e+01
ITEM: ENTRIES index c_angles
1 133.361 
2 80.8003 
3 51.8235 
4 41.7154 
5 78.803 
6 87.1841 
7 104.744 
8 76.2783 
9 109.463 
10 95.6692 
ITEM: TIMESTEP
85100
ITEM: NUMBER OF ENTRIES
10
ITEM: BOX BOUNDS pp pp pp
-1.0000000000000000e+01 1.0000000000000000e+01
-1.0000000000000000e+01 1.0000000000000000e+01
-1.0000000000000000e+01 1.0000000000000000e+01
ITEM: ENTRIES index c_angles
1 87.4973 
2 80.5714 
3 64.0209 
4 133.024 
5 40.5776 
6 36.9897 
7 117.192 
8 56.9773 
9 86.3576 
10 97.9141 
ITEM: TIMESTEP
85200
ITEM: NUMBER OF ENTRIES
10
ITEM: BOX BOUNDS pp pp pp
-1.0000000000000000e+01 1.0000000000000000e+01
-1.0000000000000000e+01 1.0000000000000000e+01
-1.0000000000000000e+01 1.0000000000000000e+01
ITEM: ENTRIES index c_angles
1 91.3495 
2 74.8172 
3 51.2598 
4 135.046 
5 29.2517 
6 30.0263 
7 125.558 
8 36.8707 
9 76.766 
10 88.9016 
ITEM: TIMESTEP
85300
ITEM: NUMBER OF ENTRIES
10
ITEM: BOX BOUNDS pp pp pp
-1.0000000000000000e+01 1.0000000000000000e+01
-1.0000000000000000e+01 1.0000000000000000e+01
-1.0000000000000000e+01 1.0000000000000000e+01
ITEM: ENTRIES index c_angles
1 91.5085 
2 66.8296 
3 44.0139 
4 141.381 
5 21.6896 
6 24.8014 
7 124.663 
8 37.6243 
9 72.2254 
10 78.3682 
ITEM: TIMESTEP
85400
ITEM: NUMBER OF ENTRIES
10
ITEM: BOX BOUNDS pp pp pp
-1.0000000000000000e+01 1.0000000000000000e+01
-1.0000000000000000e+01 1.0000000000000000e+01
-1.0000000000000000e+01 1.0000000000000000e+01
ITEM: ENTRIES index c_angles
1 93.0318 
2 60.1776 
3 41.4729 
4 151.353 
5 19.1001 
6 14.6488 
7 122.518 
8 37.6783 
9 71.332 
10 70.1293 
ITEM: TIMESTEP
85500
ITEM: NUMBER OF ENTRIES
10
ITEM: BOX BOUNDS pp pp pp
-1.0000000000000000e+01 1.0000000000000000e+01
-1.0000000000000000e+01 1.0000000000000000e+01
-1.0000000000000000e+01 1.0000000000000000e+01
ITEM: ENTRIES index c_angles
1 98.137 
2 63.7773 
3 40.2661 
4 156.839 
5 19.899 
6 1.08681 
7 122.415 
8 36.6227 
9 74.1395 
10 68.2365 
ITEM: TIMESTEP
85600
ITEM: NUMBER OF ENTRIES
10
ITEM: BOX BOUNDS pp pp pp
-1.0000000000000000e+01 1.0000000000000000e+01
-1.0000000000000000e+01 1.0000000000000000e+01
-1.0000000000000000e+01 1.0000000000000000e+01
ITEM: ENTRIES index c_angles
1 112.591 
2 68.9939 
3 39.2897 
4 156.693 
5 22.348 
6 9.27007 
7 120.786 
8 38.5614 
9 83.036 
10 69.9044 
ITEM: TIMESTEP
85700
ITEM: NUMBER OF ENTRIES
10
ITEM: BOX BOUNDS pp pp pp
-1.0000000000000000e+01 1.0000000000000000e+01
-1.0000000000000000e+01 1.0000000000000000e+01
-1.0000000000000000e+01 1.0000000000000000e+01
ITEM: ENTRIES index c_angles
1 129.67 
2 71.9141 
3 36.7346 
4 148.04 
5 31.1195 
6 10.2135 
7 111.424 
8 43.4409 
9 95.4802 
10 74.4523 
ITEM: TIMESTEP
85800
ITEM: NUMBER OF ENTRIES
10
ITEM: BOX BOUNDS pp pp pp
-1.0000000000000000e+01 1.0000000000000000e+01
-1.0000000000000000e+01 1.0000000000000000e+01
-1.0000000000000000e+01 1.0000000000000000e+01
ITEM: ENTRIES index c_angles
1 139.162 
2 77.2473 
3 35.0521 
4 140.038 
5 42.716 
6 10.6135 
7 102.396 
8 52.5441 
9 110.855 
10 84.683 
ITEM: TIMESTEP
85900
ITEM: NUMBER OF ENTRIES
10
ITEM: BOX BOUNDS pp pp pp
-1.0000000000000000e+01 1.0000000000000000e+01
-1.0000000000000000e+01 1.0000000000000000e+01
-1.0000000000000000e+01 1.0000000000000000e+01
ITEM: ENTRIES index c_angles
1 148.288 
2 86.3116 
3 36.6435 
4 131.059 
5 53.8023 
6 13.582 
7 86.3372 
8 65.1992 
9 129.644 
10 102.185 
ITEM: TIMESTEP
86000
ITEM: NUMBER OF ENTRIES
10
ITEM: BOX BOUNDS pp pp pp
-1.0000000000000000e+01 1.0000000000000000e+01
-1.0000000000000000e+01 1.0000000000000000e+01
-1.0000000000000000e+01 1.0000000000000000e+01
ITEM: ENTRIES index c_angles
1 153.274 
2 96.3738 
3 44.7579 
4 121.507 
5 62.3897 
6 26.4601 
7 75.4175 
8 72.7811 
9 145.77 
10 118.335 
ITEM: TIMESTEP
86100
ITEM: NUMBER OF ENTRIES
10
ITEM: BOX BOUNDS pp pp pp
-1.0000000000000000e+01 1.0000000000000000e+01
-1.0000000000000000e+01 1.0000000000000000e+01
-1.0000000000000000e+01 1.0000000000000000e+01
ITEM: ENTRIES index c_angles
1 74.4218 
2 157.168 
3 52.9196 
4 103.71 
5 44.6085 
6 67.9294 
7 74.0933 
8 95.9465 
9 145.474 
10 125.83 
ITEM: TIMESTEP
86200
ITEM: NUMBER OF ENTRIES
10
ITEM: BOX BOUNDS pp pp pp
-1.0000000000000000e+01 1.0000000000000000e+01
-1.0000000000000000e+01 1.0000000000000000e+01
-1.0000000000000000e+01 1.0000000000000000e+01
ITEM: ENTRIES index c_angles
1 73.5072 
2 158.339 
3 62.0439 
4 87.0225 
5 61.7447 
6 69.4059 
7 82.1196 
8 85.8425 
9 135.22 
10 121.884 
ITEM: TIMESTEP
86300
ITEM: NUMBER OF ENTRIES
10
ITEM: BOX BOUNDS pp pp pp
-1.0000000000000000e+01 1.0000000000000000e+01
-1.0000000000000000e+01 1.0000000000000000e+01
-1.0000000000000000e+01 1.0000000000000000e+01
ITEM: ENTRIES index c_angles
1 76.4663 
2 156.184 
3 68.7391 
4 80.6133 
5 78.6023 
6 67.6472 
7 86.1459 
8 69.344 
9 122.63 
10 116.636 
ITEM: TIMESTEP
86400
ITEM: NUMBER OF ENTRIES
10
ITEM: BOX BOUNDS pp pp pp
-1.0000000000000000e+01 1.0000000000000000e+01
-1.0000000000000000e+01 1.0000000000000000e+01
-1.0000000000000000e+01 1.0000000000000000e+01
ITEM: ENTRIES index c_angles
1 79.7159 
2 150.372 
3 69.9616 
4 86.9247 
5 98.2419 
6 59.8868 
7 87.1924 
8 50.8229 
9 108.406 
10 112.298 
ITEM: TIMESTEP
86500
ITEM: NUMBER OF ENTRIES
10
ITEM: BOX BOUNDS pp pp pp
-1.0000000000000000e+01 1.0000000000000000e+01
-1.0000000000000000e+01 1.0000000000000000e+01
-1.0000000000000000e+01 1.0000000000000000e+01
ITEM: ENTRIES index c_angles
1 82.8031 
2 152.143 
3 72.0302 
4 94.8442 
5 121.556 
6 51.5108 
7 87.9775 
8 41.8547 
9 94.1047 
10 108.759 
ITEM: TIMESTEP
86600
ITEM: NUMBER OF ENTRIES
10
ITEM: BOX BOUNDS pp pp pp
-1.0000000000000000e+01 1.0000000000000000e+01
-1.0000000000000000e+01 1.0000000000000000e+01
-1.0000000000000000e+01 1.0000000000000000e+01
ITEM: ENTRIES index c_angles
1 82.7877 
2 153.98 
3 77.0299 
4 104.712 
5 141.423 
6 45.5973 
7 86.3032 
8 40.155 
9 79.0592 
10 103.881 
ITEM: TIMESTEP
86700
ITEM: NUMBER OF ENTRIES
10
ITEM: BOX BOUNDS pp pp pp
-1.0000000000000000e+01 1.0000000000000000e+01
-1.0000000000000000e+01 1.0000000000000000e+01
-1.0000000000000000e+01 1.0000000000000000e+01
ITEM: ENTRIES index c_angles
1 87.1256 
2 152.407 
3 81.98 
4 111.643 
5 154.487 
6 38.215 
7 82.2615 
8 44.2172 
9 66.1662 
10 104.48 
ITEM: TIMESTEP
86800
ITEM: NUMBER OF ENTRIES
10
ITEM: BOX BOUNDS pp pp pp
-1.0000000000000000e+01 1.0000000000000000e+01
-1.0000000000000000e+01 1.0000000000000000e+01
-1.0000000000000000e+01 1.0000000000000000e+01
ITEM: ENTRIES index c_angles
1 92.7655 
2 147.776 
3 89.647 
4 117.667 
5 161.518 
6 35.0649 
7 80.2434 
8 53.5925 
9 55.7267 
10 104.246 
ITEM: TIMESTEP
86900
ITEM: NUMBER OF ENTRIES
10
ITEM: BOX BOUNDS pp pp pp
-1.0000000000000000e+01 1.0000000000000000e+01
-1.0000000000000000e+01 1.0000000000000000e+01
-1.0000000000000000e+01 1.0000000000000000e+01
ITEM: ENTRIES index c_angles
1 91.6074 
2 150.171 
3 106.159 
4 121.593 
5 170.24 
6 32.5207 
7 79.6745 
8 62.5549 
9 49.0364 
10 105.276 
ITEM: TIMESTEP
87000
ITEM: NUMBER OF ENTRIES
10
ITEM: BOX BOUNDS pp pp pp
-1.0000000000000000e+01 1.0000000000000000e+01
-1.0000000000000000e+01 1.0000000000000000e+01
-1.0000000000000000e+01 1.0000000000000000e+01
ITEM: ENTRIES index c_angles
1 84.0285 
2 146.428 
3 115.72 
4 119.135 
5 172.483 
6 26.6604 
7 82.3665 
8 69.1632 
9 47.107 
10 109.319 
ITEM: TIMESTEP
87100
ITEM: NUMBER OF ENTRIES
10
ITEM: BOX BOUNDS pp pp pp
-1.0000000000000000e+01 1.0000000000000000e+01
-1.0000000000000000e+01 1.0000000000000000e+01
-1.0000000000000000e+01 1.0000000000000000e+01
ITEM: ENTRIES index c_angles
1 74.5649 
2 129.337 
3 108.099 
4 111.921 
5 160.857 
6 23.8979 
7 85.7241 
8 67.3804 
9 51.4019 
10 114.884 
ITEM: TIMESTEP
87200
ITEM: NUMBER OF ENTRIES
10
ITEM: BOX BOUNDS pp pp pp
-1.0000000000000000e+01 1.0000000000000000e+01
-1.0000000000000000e+01 1.0000000000000000e+01
-1.0000000000000000e+01 1.0000000000000000e+01
ITEM: ENTRIES index c_angles
1 112.878 
2 70.3436 
3 71.0778 
4 93.6821 
5 91.8413 
6 104.714 
7 155.164 
8 22.3039 
9 122.644 
10 52.9865 
ITEM: TIMESTEP
87300
ITEM: NUMBER OF ENTRIES
10
ITEM: BOX BOUNDS pp pp pp
-1.0000000000000000e+01 1.0000000000000000e+01
-1.0000000000000000e+01 1.0000000000000000e+01
-1.0000000000000000e+01 1.0000000000000000e+01
ITEM: ENTRIES index c_angles
1 102.39 
2 69.977 
3 77.4525 
4 103 
5 76.8154 
6 101.285 
7 152.52 
8 18.1946 
9 124.642 
10 47.4015 
ITEM: TIMESTEP
87400
ITEM: NUMBER OF ENTRIES
10
ITEM: BOX BOUNDS pp pp pp
-1.0000000000000000e+01 1.0000000000000000e+01
-1.0000000000000000e+01 1.0000000000000000e+01
-1.0000000000000000e+01 1.0000000000000000e+01
ITEM: ENTRIES index c_angles
1 101.118 
2 69.1834 
3 83.8597 
4 118.281 
5 67.7457 
6 98.675 
7 153.974 
8 12.0033 
9 115.876 
10 45.4744 
ITEM: TIMESTEP
87500
ITEM: NUMBER OF ENTRIES
10
ITEM: BOX BOUNDS pp pp pp
-1.0000000000000000e+01 1.0000000000000000e+01
-1.0000000000000000e+01 1.0000000000000000e+01
-1.0000000000000000e+01 1.0000000000000000e+01
ITEM: ENTRIES index c_angles
1 105.88 
2 70.5355 
3 88.4797 
4 128.701 
5 62.4725 
6 94.3701 
7 158.287 
8 4.62723 
9 103.93 
10 45.8579 
ITEM: TIMESTEP
87600
ITEM: NUMBER OF ENTRIES
10
ITEM: BOX BOUNDS pp pp pp
-1.0000000000000000e+01 1.0000000000000000e+01
-1.0000000000000000e+01 1.0000000000000000e+01
-1.0000000000000000e+01 1.0000000000000000e+01
ITEM: ENTRIES index c_angles
1 113.036 
2 77.7308 
3 92.5614 
4 135.209 
5 59.3497 
6 84.6456 
7 166.225 
8 2.05615 
9 93.1779 
10 47.012 
ITEM: TIMESTEP
87700
ITEM: NUMBER OF ENTRIES
10
ITEM: BOX BOUNDS pp pp pp
-1.0000000000000000e+01 1.0000000000000000e+01
-1.0000000000000000e+01 1.0000000000000000e+01
-1.0000000000000000e+01 1.0000000000000000e+01
ITEM: ENTRIES index c_angles
1 109.199 
2 80.6137 
3 97.5639 
4 134.338 
5 55.4797 
6 70.3227 
7 168.932 
8 7.4357 
9 88.5275 
10 49.5403 
ITEM: TIMESTEP
87800
ITEM: NUMBER OF ENTRIES
10
ITEM: BOX BOUNDS pp pp pp
-1.0000000000000000e+01 1.0000000000000000e+01
-1.0000000000000000e+01 1.0000000000000000e+01
-1.0000000000000000e+01 1.0000000000000000e+01
ITEM: ENTRIES index c_angles
1 97.0534 
2 82.4629 
3 101.453 
4 129.043 
5 56.1832 
6 54.3397 
7 163.774 
8 13.1213 
9 89.5845 
10 52.4215 
ITEM: TIMESTEP
87900
ITEM: NUMBER OF ENTRIES
10
ITEM: BOX BOUNDS pp pp pp
-1.0000000000000000e+01 1.0000000000000000e+01
-1.0000000000000000e+01 1.0000000000000000e+01
-1.0000000000000000e+01 1.0000000000000000e+01
ITEM: ENTRIES index c_angles
1 90.3688 
2 83.6966 
3 105.644 
4 125.095 
5 51.1454 
6 40.3294 
7 157.694 
8 20.5483 
9 94.1476 
10 56.709 
ITEM: TIMESTEP
88000
ITEM: NUMBER OF ENTRIES
10
ITEM: BOX BOUNDS pp pp pp
-1.0000000000000000e+01 1.0000000000000000e+01
-1.0000000000000000e+01 1.0000000000000000e+01
-1.0000000000000000e+01 1.0000000000000000e+01
ITEM: ENTRIES index c_angles
1 84.9728 
2 81.0465 
3 109.108 
4 121.779 
5 49.0582 
6 25.7107 
7 149.509 
8 29.7825 
9 98.2167 
10 60.2397 
ITEM: TIMESTEP
88100
ITEM: NUMBER OF ENTRIES
10
ITEM: BOX BOUNDS pp pp pp
-1.0000000000000000e+01 1.0000000000000000e+01
-1.0000000000000000e+01 1.0000000000000000e+01
-1.0000000000000000e+01 1.0000000000000000e+01
ITEM: ENTRIES index c_angles
1 82.3936 
2 119.377 
3 76.3458 
4 114.019 
5 67.1285 
6 19.209 
7 49.1478 
8 132.84 
9 42.9437 
10 100.605 
ITEM: TIMESTEP
88200
ITEM: NUMBER OF ENTRIES
10
ITEM: BOX BOUNDS pp pp pp
-1.0000000000000000e+01 1.0000000000000000e+01
-1.0000000000000000e+01 1.0000000000000000e+01
-1.0000000000000000e+01 1.0000000000000000e+01
ITEM: ENTRIES index c_angles
1 85.6778 
2 115.063 
3 66.3593 
4 112.047 
5 75.7593 
6 24.9016 
7 53.6756 
8 113.734 
9 48.0957 
10 100.6 
ITEM: TIMESTEP
88300
ITEM: NUMBER OF ENTRIES
10
ITEM: BOX BOUNDS pp pp pp
-1.0000000000000000e+01 1.0000000000000000e+01
-1.0000000000000000e+01 1.0000000000000000e+01
-1.0000000000000000e+01 1.0000000000000000e+01
ITEM: ENTRIES index c_angles
1 90.5663 
2 105.385 
3 60.4457 
4 110.414 
5 82.3297 
6 32.6339 
7 66.9519 
8 104.799 
9 40.9008 
10 101.058 
ITEM: TIMESTEP
88400
ITEM: NUMBER OF ENTRIES
10
ITEM: BOX BOUNDS pp pp pp
-1.0000000000000000e+01 1.0000000000000000e+01
-1.0000000000000000e+01 1.0000000000000000e+01
-1.0000000000000000e+01 1.0000000000000000e+01
ITEM: ENTRIES index c_angles
1 95.5373 
2 92.1384 
3 53.8312 
4 111.247 
5 82.7712 
6 34.8213 
7 81.3042 
8 101.662 
9 30.1319 
10 99.8105 
ITEM: TIMESTEP
88500
ITEM: NUMBER OF ENTRIES
10
ITEM: BOX BOUNDS pp pp pp
-1.0000000000000000e+01 1.0000000000000000e+01
-1.0000000000000000e+01 1.0000000000000000e+01
-1.0000000000000000e+01 1.0000000000000000e+01
ITEM: ENTRIES index c_angles
1 93.0699 
2 80.304 
3 51.6205 
4 117.564 
5 84.267 
6 36.5943 
7 98.3587 
8 98.6653 
9 19.783 
10 98.9991 
ITEM: TIMESTEP
88600
ITEM: NUMBER OF ENTRIES
10
ITEM: BOX BOUNDS pp pp pp
-1.0000000000000000e+01 1.0000000000000000e+01
-1.0000000000000000e+01 1.0000000000000000e+01
-1.0000000000000000e+01 1.0000000000000000e+01
ITEM: ENTRIES index c_angles
1 90.7482 
2 72.9625 
3 54.3327 
4 126.993 
5 82.0953 
6 41.1471 
7 115.69 
8 98.1931 
9 12.8169 
10 99.8187 
ITEM: TIMESTEP
88700
ITEM: NUMBER OF ENTRIES
10
ITEM: BOX BOUNDS pp pp pp
-1.0000000000000000e+01 1.0000000000000000e+01
-1.0000000000000000e+01 1.0000000000000000e+01
-1.0000000000000000e+01 1.0000000000000000e+01
ITEM: ENTRIES index c_angles
1 88.7938 
2 60.1013 
3 57.5236 
4 133.484 
5 80.6067 
6 50.633 
7 125.998 
8 99.9855 
9 8.76275 
10 108.897 
ITEM: TIMESTEP
88800
ITEM: NUMBER OF ENTRIES
10
ITEM: BOX BOUNDS pp pp pp
-1.0000000000000000e+01 1.0000000000000000e+01
-1.0000000000000000e+01 1.0000000000000000e+01
-1.0000000000000000e+01 1.0000000000000000e+01
ITEM: ENTRIES index c_angles
1 85.3869 
2 42.4028 
3 58.7125 
4 136.791 
5 73.4828 
6 64.1649 
7 127.274 
8 87.8412 
9 5.14378 
10 121.214 
ITEM: TIMESTEP
88900
ITEM: NUMBER OF ENTRIES
10
ITEM: BOX BOUNDS pp pp pp
-1.0000000000000000e+01 1.0000000000000000e+01
-1.0000000000000000e+01 1.0000000000000000e+01
-1.0000000000000000e+01 1.0000000000000000e+01
ITEM: ENTRIES index c_angles
1 74.0314 
2 24.161 
3 54.9615 
4 132.731 
5 59.7868 
6 80.6484 
7 128.724 
8 72.3057 
9 1.02208 
10 126.571 
ITEM: TIMESTEP
89000
ITEM: NUMBER OF ENTRIES
10
ITEM: BOX BOUNDS pp pp pp
-1.0000000000000000e+01 1.0000000000000000e+01
-1.0000000000000000e+01 1.0000000000000000e+01
-1.0000000000000000e+01 1.0000000000000000e+01
ITEM: ENTRIES index c_angles
1 59.2046 
2 10.1923 
3 49.8623 
4 126.316 
5 41.7181 
6 104.043 
7 126.965 
8 58.0818 
9 4.47147 
10 128.586 
ITEM: TIMESTEP
89100
ITEM: NUMBER OF ENTRIES
10
ITEM: BOX BOUNDS pp pp pp
-1.0000000000000000e+01 1.0000000000000000e+01
-1.0000000000000000e+01 1.0000000000000000e+01
-1.0000000000000000e+01 1.0000000000000000e+01
ITEM: ENTRIES index c_angles
1 4.37835 
2 42.4408 
3 120.755 
4 22.8984 
5 135.564 
6 126.774 
7 11.4484 
8 49.0817 
9 53.0338 
10 121.118 
ITEM: TIMESTEP
89200
ITEM: NUMBER OF ENTRIES
10
ITEM: BOX BOUNDS pp pp pp
-1.0000000000000000e+01 1.0000000000000000e+01
-1.0000000000000000e+01 1.0000000000000000e+01
-1.0000000000000000e+01 1.0000000000000000e+01
ITEM: ENTRIES index c_angles
1 22.8187 
2 32.0796 
3 118.669 
4 10.8283 
5 167.162 
6 123.549 
7 12.4882 
8 43.1093 
9 50.9832 
10 106.624 
ITEM: TIMESTEP
89300
ITEM: NUMBER OF ENTRIES
10
ITEM: BOX BOUNDS pp pp pp
-1.0000000000000000e+01 1.0000000000000000e+01
-1.0000000000000000e+01 1.0000000000000000e+01
-1.0000000000000000e+01 1.0000000000000000e+01
ITEM: ENTRIES index c_angles
1 38.3311 
2 30.0463 
3 113.068 
4 3.61711 
5 161.869 
6 115.818 
7 3.41142 
8 41.6166 
9 48.7328 
10 90.2222 
ITEM: TIMESTEP
89400
ITEM: NUMBER OF ENTRIES
10
ITEM: BOX BOUNDS pp pp pp
-1.0000000000000000e+01 1.0000000000000000e+01
-1.0000000000000000e+01 1.0000000000000000e+01
-1.0000000000000000e+01 1.0000000000000000e+01
ITEM: ENTRIES index c_angles
1 50.4007 
2 32.8608 
3 109.806 
4 3.56091 
5 148.417 
6 109.085 
7 20.362 
8 45.1194 
9 47.9232 
10 76.1361 
ITEM: TIMESTEP
89500
ITEM: NUMBER OF ENTRIES
10
ITEM: BOX BOUNDS pp pp pp
-1.0000000000000000e+01 1.0000000000000000e+01
-1.0000000000000000e+01 1.0000000000000000e+01
-1.0000000000000000e+01 1.0000000000000000e+01
ITEM: ENTRIES index c_angles
1 55.4179 
2 36.5329 
3 118.062 
4 7.59707 
5 140.93 
6 102.477 
7 40.3429 
8 53.6973 
9 45.4867 
10 64.3456 
ITEM: TIMESTEP
89600
ITEM: NUMBER OF ENTRIES
10
ITEM: BOX BOUNDS pp pp pp
-1.0000000000000000e+01 1.0000000000000000e+01
-1.0000000000000000e+01 1.0000000000000000e+01
-1.0000000000000000e+01 1.0000000000000000e+01
ITEM: ENTRIES index c_angles
1 65.3672 
2 45.8844 
3 132.537 
4 14.227 
5 135.645 
6 97.6957 
7 50.8693 
8 70.0509 
9 38.0264 
10 53.885 
ITEM: TIMESTEP
89700
ITEM: NUMBER OF ENTRIES
10
ITEM: BOX BOUNDS pp pp pp
-1.0000000000000000e+01 1.0000000000000000e+01
-1.0000000000000000e+01 1.0000000000000000e+01
-1.0000000000000000e+01 1.0000000000000000e+01
ITEM: ENTRIES index c_angles
1 72.3914 
2 67.4884 
3 143.388 
4 25.141 
5 130.279 
6 91.8859 
7 53.9678 
8 83.4642 
9 27.5688 
10 46.4953 
ITEM: TIMESTEP
89800
ITEM: NUMBER OF ENTRIES
10
ITEM: BOX BOUNDS pp pp pp
-1.0000000000000000e+01 1.0000000000000000e+01
-1.0000000000000000e+01 1.0000000000000000e+01
-1.0000000000000000e+01 1.0000000000000000e+01
ITEM: ENTRIES index c_angles
1 72.9963 
2 86.5368 
3 149.511 
4 31.209 
5 125.528 
6 82.2418 
7 55.0779 
8 78.2642 
9 24.0098 
10 40.9217 
ITEM: TIMESTEP
89900
ITEM: NUMBER OF ENTRIES
10
ITEM: BOX BOUNDS pp pp pp
-1.0000000000000000e+01 1.0000000000000000e+01
-1.0000000000000000e+01 1.0000000000000000e+01
-1.0000000000000000e+01 1.0000000000000000e+01
ITEM: ENTRIES index c_angles
1 70.6379 
2 93.5653 
3 153.231 
4 31.9469 
5 124.235 
6 73.638 
7 57.2246 
8 67.0244 
9 31.6229 
10 40.6429 
ITEM: TIMESTEP
90000
ITEM: NUMBER OF ENTRIES
10
ITEM: BOX BOUNDS pp pp pp
-1.0000000000000000e+01 1.0000000000000000e+01
-1.0000000000000000e+01 1.0000000000000000e+01
-1.0000000000000000e+01 1.0000000000000000e+01
ITEM: ENTRIES index c_angles
1 63.336 
2 96.2808 
3 153.436 
4 28.3332 
5 125.96 
6 62.7961 
7 60.1277 
8 54.4764 
9 44.507 
10 45.2342 
ITEM: TIMESTEP
90100
ITEM: NUMBER OF ENTRIES
10
ITEM: BOX BOUNDS pp pp pp
-1.0000000000000000e+01 1.0000000000000000e+01
-1.0000000000000000e+01 1.0000000000000000e+01
-1.0000000000000000e+01 1.0000000000000000e+01
ITEM: ENTRIES index c_angles
1 101.495 
2 51.796 
3 22.8382 
4 155.322 
5 52.7746 
6 55.9101 
7 63.7125 
8 130.725 
9 46.5716 
10 53.9383 
ITEM: TIMESTEP
90200
ITEM: NUMBER OF ENTRIES
10
ITEM: BOX BOUNDS pp pp pp
-1.0000000000000000e+01 1.0000000000000000e+01
-1.0000000000000000e+01 1.0000000000000000e+01
-1.0000000000000000e+01 1.0000000000000000e+01
ITEM: ENTRIES index c_angles
1 99.9515 
2 51.2968 
3 23.6709 
4 153.781 
5 37.6373 
6 52.0045 
7 67.5884 
8 130.101 
9 41.9032 
10 72.303 
ITEM: TIMESTEP
90300
ITEM: NUMBER OF ENTRIES
10
ITEM: BOX BOUNDS pp pp pp
-1.0000000000000000e+01 1.0000000000000000e+01
-1.0000000000000000e+01 1.0000000000000000e+01
-1.0000000000000000e+01 1.0000000000000000e+01
ITEM: ENTRIES index c_angles
1 100.882 
2 47.5065 
3 27.0282 
4 151.66 
5 22.24 
6 51.8232 
7 69.1186 
8 122.38 
9 36.6705 
10 97.2378 
ITEM: TIMESTEP
90400
ITEM: NUMBER OF ENTRIES
10
ITEM: BOX BOUNDS pp pp pp
-1.0000000000000000e+01 1.0000000000000000e+01
-1.0000000000000000e+01 1.0000000000000000e+01
-1.0000000000000000e+01 1.0000000000000000e+01
ITEM: ENTRIES index c_angles
1 102.305 
2 43.4208 
3 35.3917 
4 150.027 
5 12.3473 
6 54.7232 
7 69.0227 
8 116.336 
9 30.9051 
10 116.973 
ITEM: TIMESTEP
90500
ITEM: NUMBER OF ENTRIES
10
ITEM: BOX BOUNDS pp pp pp
-1.0000000000000000e+01 1.0000000000000000e+01
-1.0000000000000000e+01 1.0000000000000000e+01
-1.0000000000000000e+01 1.0000000000000000e+01
ITEM: ENTRIES index c_angles
1 107.141 
2 44.4021 
3 42.6135 
4 154.209 
5 22.1532 
6 59.924 
7 68.0494 
8 116.72 
9 28.5633 
10 129.862 
ITEM: TIMESTEP
90600
ITEM: NUMBER OF ENTRIES
10
ITEM: BOX BOUNDS pp pp pp
-1.0000000000000000e+01 1.0000000000000000e+01
-1.0000000000000000e+01 1.0000000000000000e+01
-1.0000000000000000e+01 1.0000000000000000e+01
ITEM: ENTRIES index c_angles
1 115.926 
2 54.1559 
3 47.7854 
4 168.443 
5 32.3761 
6 56.9229 
7 64.3336 
8 116.278 
9 46.8601 
10 122.388 
ITEM: TIMESTEP
90700
ITEM: NUMBER OF ENTRIES
10
ITEM: BOX BOUNDS pp pp pp
-1.0000000000000000e+01 1.0000000000000000e+01
-1.0000000000000000e+01 1.0000000000000000e+01
-1.0000000000000000e+01 1.0000000000000000e+01
ITEM: ENTRIES index c_angles
1 125.36 
2 69.8575 
3 53.455 
4 159.127 
5 42.415 
6 51.7229 
7 61.8573 
8 119.343 
9 51.555 
10 107.674 
ITEM: TIMESTEP
90800
ITEM: NUMBER OF ENTRIES
10
ITEM: BOX BOUNDS pp pp pp
-1.0000000000000000e+01 1.0000000000000000e+01
-1.0000000000000000e+01 1.0000000000000000e+01
-1.0000000000000000e+01 1.0000000000000000e+01
ITEM: ENTRIES index c_angles
1 126.745 
2 85.7861 
3 56.7957 
4 132.291 
5 46.5633 
6 44.9081 
7 60.0221 
8 129.708 
9 45.8765 
10 98.3488 
ITEM: TIMESTEP
90900
ITEM: NUMBER OF ENTRIES
10
ITEM: BOX BOUNDS pp pp pp
-1.0000000000000000e+01 1.0000000000000000e+01
-1.0000000000000000e+01 1.0000000000000000e+01
-1.0000000000000000e+01 1.0000000000000000e+01
ITEM: ENTRIES index c_angles
1 116.112 
2 108.928 
3 60.3946 
4 119.892 
5 48.0127 
6 39.8014 
7 58.1503 
8 141.864 
9 41.7992 
10 90.6293 
ITEM: TIMESTEP
91000
ITEM: NUMBER OF ENTRIES
10
ITEM: BOX BOUNDS pp pp pp
-1.0000000000000000e+01 1.0000000000000000e+01
-1.0000000000000000e+01 1.0000000000000000e+01
-1.0000000000000000e+01 1.0000000000000000e+01
ITEM: ENTRIES index c_angles
1 98.3242 
2 130.02 
3 64.329 
4 122.142 
5 45.2433 
6 36.9527 
7 52.0469 
8 150.374 
9 44.5799 
10 88.8534 
ITEM: TIMESTEP
91100
ITEM: NUMBER OF ENTRIES
10
ITEM: BOX BOUNDS pp pp pp
-1.0000000000000000e+01 1.0000000000000000e+01
-1.0000000000000000e+01 1.0000000000000000e+01
-1.0000000000000000e+01 1.0000000000000000e+01
ITEM: ENTRIES index c_angles
1 81.5254 
2 143.095 
3 132.451 
4 47.5596 
5 35.2167 
6 155.872 
7 44.3 
8 57.1649 
9 65.2534 
10 87.4043 
ITEM: TIMESTEP
91200
ITEM: NUMBER OF ENTRIES
10
ITEM: BOX BOUNDS pp pp pp
-1.0000000000000000e+01 1.0000000000000000e+01
-1.0000000000000000e+01 1.0000000000000000e+01
-1.0000000000000000e+01 1.0000000000000000e+01
ITEM: ENTRIES index c_angles
1 69.2616 
2 144.617 
3 145.314 
4 53.1014 
5 38.489 
6 152.311 
7 33.8983 
8 73.6711 
9 64.0494 
10 88.7165 
ITEM: TIMESTEP
91300
ITEM: NUMBER OF ENTRIES
10
ITEM: BOX BOUNDS pp pp pp
-1.0000000000000000e+01 1.0000000000000000e+01
-1.0000000000000000e+01 1.0000000000000000e+01
-1.0000000000000000e+01 1.0000000000000000e+01
ITEM: ENTRIES index c_angles
1 63.0982 
2 131.779 
3 159.757 
4 57.687 
5 44.5709 
6 136.797 
7 19.1101 
8 92.8774 
9 63.4314 
10 91.5459 
ITEM: TIMESTEP
91400
ITEM: NUMBER OF ENTRIES
10
ITEM: BOX BOUNDS pp pp pp
-1.0000000000000000e+01 1.0000000000000000e+01
-1.0000000000000000e+01 1.0000000000000000e+01
-1.0000000000000000e+01 1.0000000000000000e+01
ITEM: ENTRIES index c_angles
1 60.7323 
2 116.789 
3 165.946 
4 61.4563 
5 53.7669 
6 117.689 
7 7.295 
8 106.545 
9 68.5466 
10 94.8201 
ITEM: TIMESTEP
91500
ITEM: NUMBER OF ENTRIES
10
ITEM: BOX BOUNDS pp pp pp
-1.0000000000000000e+01 1.0000000000000000e+01
-1.0000000000000000e+01 1.0000000000000000e+01
-1.0000000000000000e+01 1.0000000000000000e+01
ITEM: ENTRIES index c_angles
1 64.3151 
2 103.873 
3 159.522 
4 67.1267 
5 70.3074 
6 102.933 
7 10.4934 
8 118.453 
9 76.3787 
10 95.019 
ITEM: TIMESTEP
91600
ITEM: NUMBER OF ENTRIES
10
ITEM: BOX BOUNDS pp pp pp
-1.0000000000000000e+01 1.0000000000000000e+01
-1.0000000000000000e+01 1.0000000000000000e+01
-1.0000000000000000e+01 1.0000000000000000e+01
ITEM: ENTRIES index c_angles
1 72.0036 
2 94.0865 
3 143.353 
4 61.8371 
5 86.1866 
6 93.3369 
7 18.1106 
8 130.736 
9 83.9109 
10 93.9786 
ITEM: TIMESTEP
91700
ITEM: NUMBER OF ENTRIES
10
ITEM: BOX BOUNDS pp pp pp
-1.0000000000000000e+01 1.0000000000000000e+01
-1.0000000000000000e+01 1.0000000000000000e+01
-1.0000000000000000e+01 1.0000000000000000e+01
ITEM: ENTRIES index c_angles
1 79.7299 
2 92.9397 
3 127.397 
4 48.4864 
5 96.4544 
6 84.1448 
7 22.0875 
8 147.431 
9 85.4315 
10 89.5148 
ITEM: TIMESTEP
91800
ITEM: NUMBER OF ENTRIES
10
ITEM: BOX BOUNDS pp pp pp
-1.0000000000000000e+01 1.0000000000000000e+01
-1.0000000000000000e+01 1.0000000000000000e+01
-1.0000000000000000e+01 1.0000000000000000e+01
ITEM: ENTRIES index c_angles
1 93.8174 
2 93.5115 
3 112.749 
4 34.1812 
5 97.4283 
6 79.9262 
7 22.8808 
8 157.784 
9 83.8528 
10 84.8551 
ITEM: TIMESTEP
91900
ITEM: NUMBER OF ENTRIES
10
ITEM: BOX BOUNDS pp pp pp
-1.0000000000000000e+01 1.0000000000000000e+01
-1.0000000000000000e+01 1.0000000000000000e+01
-1.0000000000000000e+01 1.0000000000000000e+01
ITEM: ENTRIES index c_angles
1 113.05 
2 91.2131 
3 105.713 
4 19.5431 
5 94.0792 
6 76.0711 
7 22.9876 
8 161.816 
9 87.4972 
10 76.8712 
ITEM: TIMESTEP
92000
ITEM: NUMBER OF ENTRIES
10
ITEM: BOX BOUNDS pp pp pp
-1.0000000000000000e+01 1.0000000000000000e+01
-1.0000000000000000e+01 1.0000000000000000e+01
-1.0000000000000000e+01 1.0000000000000000e+01
ITEM: ENTRIES index c_angles
1 125.27 
2 91.3205 
3 106.05 
4 9.90692 
5 84.9292 
6 74.6167 
7 23.2955 
8 168.411 
9 97.0615 
10 71.8388 
ITEM: TIMESTEP
92100
ITEM: NUMBER OF ENTRIES
10
ITEM: BOX BOUNDS pp pp pp
-1.0000000000000000e+01 1.0000000000000000e+01
-1.0000000000000000e+01 1.0000000000000000e+01
-1.0000000000000000e+01 1.0000000000000000e+01
ITEM: ENTRIES index c_angles
1 94.0411 
2 111.873 
3 130.162 
4 12.5444 
5 69.6763 
6 76.7451 
7 168.712 
8 23.6175 
9 70.8318 
10 102.714 
ITEM: TIMESTEP
92200
ITEM: NUMBER OF ENTRIES
10
ITEM: BOX BOUNDS pp pp pp
-1.0000000000000000e+01 1.0000000000000000e+01
-1.0000000000000000e+01 1.0000000000000000e+01
-1.0000000000000000e+01 1.0000000000000000e+01
ITEM: ENTRIES index c_angles
1 98.1558 
2 111.891 
3 136.445 
4 26.2261 
5 56.1391 
6 71.3867 
7 155.612 
8 27.8053 
9 72.5364 
10 109.633 
ITEM: TIMESTEP
92300
ITEM: NUMBER OF ENTRIES
10
ITEM: BOX BOUNDS pp pp pp
-1.0000000000000000e+01 1.0000000000000000e+01
-1.0000000000000000e+01 1.0000000000000000e+01
-1.0000000000000000e+01 1.0000000000000000e+01
ITEM: ENTRIES index c_angles
1 110.188 
2 109.737 
3 133.057 
4 35.4006 
5 41.0875 
6 64.5663 
7 141.021 
8 32.7687 
9 75.37 
10 123.44 
ITEM: TIMESTEP
92400
ITEM: NUMBER OF ENTRIES
10
ITEM: BOX BOUNDS pp pp pp
-1.0000000000000000e+01 1.0000000000000000e+01
-1.0000000000000000e+01 1.0000000000000000e+01
-1.0000000000000000e+01 1.0000000000000000e+01
ITEM: ENTRIES index c_angles
1 128.503 
2 101.897 
3 127.816 
4 42.3221 
5 37.089 
6 57.1022 
7 131.875 
8 41.5291 
9 76.1386 
10 153.284 
ITEM: TIMESTEP
92500
ITEM: NUMBER OF ENTRIES
10
ITEM: BOX BOUNDS pp pp pp
-1.0000000000000000e+01 1.0000000000000000e+01
-1.0000000000000000e+01 1.0000000000000000e+01
-1.0000000000000000e+01 1.0000000000000000e+01
ITEM: ENTRIES index c_angles
1 146.969 
2 85.722 
3 117.95 
4 46.3735 
5 39.3569 
6 50.8732 
7 124.953 
8 44.9155 
9 77.7274 
10 154.708 
ITEM: TIMESTEP
92600
ITEM: NUMBER OF ENTRIES
10
ITEM: BOX BOUNDS pp pp pp
-1.0000000000000000e+01 1.0000000000000000e+01
-1.0000000000000000e+01 1.0000000000000000e+01
-1.0000000000000000e+01 1.0000000000000000e+01
ITEM: ENTRIES index c_angles
1 157.468 
2 69.0127 
3 107.438 
4 52.2661 
5 45.6698 
6 44.2928 
7 115.01 
8 36.6491 
9 71.7381 
10 107.816 
ITEM: TIMESTEP
92700
ITEM: NUMBER OF ENTRIES
10
ITEM: BOX BOUNDS pp pp pp
-1.0000000000000000e+01 1.0000000000000000e+01
-1.0000000000000000e+01 1.0000000000000000e+01
-1.0000000000000000e+01 1.0000000000000000e+01
ITEM: ENTRIES index c_angles
1 160.605 
2 60.3072 
3 105.649 
4 59.386 
5 48.7631 
6 37.602 
7 100.445 
8 24.402 
9 64.5879 
10 83.9476 
ITEM: TIMESTEP
92800
ITEM: NUMBER OF ENTRIES
10
ITEM: BOX BOUNDS pp pp pp
-1.0000000000000000e+01 1.0000000000000000e+01
-1.0000000000000000e+01 1.0000000000000000e+01
-1.0000000000000000e+01 1.0000000000000000e+01
ITEM: ENTRIES index c_angles
1 162.682 
2 59.0529 
3 108.49 
4 65.4194 
5 54.6851 
6 34.5262 
7 90.1056 
8 13.4338 
9 56.9389 
10 73.4209 
ITEM: TIMESTEP
92900
ITEM: NUMBER OF ENTRIES
10
ITEM: BOX BOUNDS pp pp pp
-1.0000000000000000e+01 1.0000000000000000e+01
-1.0000000000000000e+01 1.0000000000000000e+01
-1.0000000000000000e+01 1.0000000000000000e+01
ITEM: ENTRIES index c_angles
1 161.004 
2 60.6534 
3 112.432 
4 70.8438 
5 66.908 
6 34.5231 
7 88.0453 
8 1.34552 
9 46.3333 
10 66.6525 
ITEM: TIMESTEP
93000
ITEM: NUMBER OF ENTRIES
10
ITEM: BOX BOUNDS pp pp pp
-1.0000000000000000e+01 1.0000000000000000e+01
-1.0000000000000000e+01 1.0000000000000000e+01
-1.0000000000000000e+01 1.0000000000000000e+01
ITEM: ENTRIES index c_angles
1 158.25 
2 56.0601 
3 105.672 
4 78.4824 
5 75.8882 
6 31.8633 
7 90.056 
8 7.47059 
9 39.5963 
10 61.0763 
ITEM: TIMESTEP
93100
ITEM: NUMBER OF ENTRIES
10
ITEM: BOX BOUNDS pp pp pp
-1.0000000000000000e+01 1.0000000000000000e+01
-1.0000000000000000e+01 1.0000000000000000e+01
-1.0000000000000000e+01 1.0000000000000000e+01
ITEM: ENTRIES index c_angles
1 148.595 
2 45.0457 
3 93.4517 
4 89.3472 
5 79.8929 
6 24.3224 
7 98.3496 
8 12.4793 
9 38.2078 
10 60.2156 
ITEM: TIMESTEP
93200
ITEM: NUMBER OF ENTRIES
10
ITEM: BOX BOUNDS pp pp pp
-1.0000000000000000e+01 1.0000000000000000e+01
-1.0000000000000000e+01 1.0000000000000000e+01
-1.0000000000000000e+01 1.0000000000000000e+01
ITEM: ENTRIES index c_angles
1 128.598 
2 35.9293 
3 87.2674 
4 97.2295 
5 64.3149 
6 103.84 
7 84.4766 
8 18.8248 
9 15.2395 
10 41.8315 
ITEM: TIMESTEP
93300
ITEM: NUMBER OF ENTRIES
10
ITEM: BOX BOUNDS pp pp pp
-1.0000000000000000e+01 1.0000000000000000e+01
-1.0000000000000000e+01 1.0000000000000000e+01
-1.0000000000000000e+01 1.0000000000000000e+01
ITEM: ENTRIES index c_angles
1 106.073 
2 30.7731 
3 80.5896 
4 95.6298 
5 70.2739 
6 108.344 
7 92.035 
8 16.6082 
9 16.1287 
10 48.3597 
ITEM: TIMESTEP
93400
ITEM: NUMBER OF ENTRIES
10
ITEM: BOX BOUNDS pp pp pp
-1.0000000000000000e+01 1.0000000000000000e+01
-1.0000000000000000e+01 1.0000000000000000e+01
-1.0000000000000000e+01 1.0000000000000000e+01
ITEM: ENTRIES index c_angles
1 93.2015 
2 30.4939 
3 76.6049 
4 85.0723 
5 79.6597 
6 108.954 
7 101.655 
8 20.1169 
9 17.736 
10 58.1199 
ITEM: TIMESTEP
93500
ITEM: NUMBER OF ENTRIES
10
ITEM: BOX BOUNDS pp pp pp
-1.0000000000000000e+01 1.0000000000000000e+01
-1.0000000000000000e+01 1.0000000000000000e+01
-1.0000000000000000e+01 1.0000000000000000e+01
ITEM: ENTRIES index c_angles
1 84.2133 
2 30.3483 
3 76.2403 
4 75.3533 
5 84.8894 
6 106.042 
7 113.232 
8 24.2411 
9 25.2229 
10 69.2887 
ITEM: TIMESTEP
93600
ITEM: NUMBER OF ENTRIES
10
ITEM: BOX BOUNDS pp pp pp
-1.0000000000000000e+01 1.0000000000000000e+01
-1.0000000000000000e+01 1.0000000000000000e+01
-1.0000000000000000e+01 1.0000000000000000e+01
ITEM: ENTRIES index c_angles
1 79.6521 
2 26.5644 
3 78.7726 
4 73.1322 
5 86.1425 
6 100.216 
7 133.029 
8 28.5924 
9 38.0739 
10 80.346 
ITEM: TIMESTEP
93700
ITEM: NUMBER OF ENTRIES
10
ITEM: BOX BOUNDS pp pp pp
-1.0000000000000000e+01 1.0000000000000000e+01
-1.0000000000000000e+01 1.0000000000000000e+01
-1.0000000000000000e+01 1.0000000000000000e+01
ITEM: ENTRIES index c_angles
1 76.5213 
2 21.5155 
3 79.0424 
4 70.2419 
5 85.6708 
6 93.0736 
7 143.629 
8 33.7926 
9 48.3004 
10 93.9966 
ITEM: TIMESTEP
93800
ITEM: NUMBER OF ENTRIES
10
ITEM: BOX BOUNDS pp pp pp
-1.0000000000000000e+01 1.0000000000000000e+01
-1.0000000000000000e+01 1.0000000000000000e+01
-1.0000000000000000e+01 1.0000000000000000e+01
ITEM: ENTRIES index c_angles
1 69.7779 
2 17.5657 
3 74.0047 
4 71.4144 
5 85.5461 
6 83.341 
7 137.841 
8 39.2819 
9 51.1112 
10 106.372 
ITEM: TIMESTEP
93900
ITEM: NUMBER OF ENTRIES
10
ITEM: BOX BOUNDS pp pp pp
-1.0000000000000000e+01 1.0000000000000000e+01
-1.0000000000000000e+01 1.0000000000000000e+01
-1.0000000000000000e+01 1.0000000000000000e+01
ITEM: ENTRIES index c_angles
1 57.3011 
2 15.6894 
3 63.5636 
4 72.0399 
5 83.8184 
6 76.7907 
7 128.224 
8 46.8914 
9 52.8528 
10 114.418 
ITEM: TIMESTEP
94000
ITEM: NUMBER OF ENTRIES
10
ITEM: BOX BOUNDS pp pp pp
-1.0000000000000000e+01 1.0000000000000000e+01
-1.0000000000000000e+01 1.0000000000000000e+01
-1.0000000000000000e+01 1.0000000000000000e+01
ITEM: ENTRIES index c_angles
1 44.2712 
2 22.7509 
3 48.8572 
4 72.4546 
5 80.4306 
6 71.4465 
7 120.061 
8 56.1734 
9 51.8135 
10 115.229 
ITEM: TIMESTEP
94100
ITEM: NUMBER OF ENTRIES
10
ITEM: BOX BOUNDS pp pp pp
-1.0000000000000000e+01 1.0000000000000000e+01
-1.0000000000000000e+01 1.0000000000000000e+01
-1.0000000000000000e+01 1.0000000000000000e+01
ITEM: ENTRIES index c_angles
1 36.3512 
2 31.4887 
3 30.5131 
4 76.8944 
5 78.9806 
6 67.8626 
7 114.316 
8 61.6731 
9 50.2213 
10 114.159 
ITEM: TIMESTEP
94200
ITEM: NUMBER OF ENTRIES
10
ITEM: BOX BOUNDS pp pp pp
-1.0000000000000000e+01 1.0000000000000000e+01
-1.0000000000000000e+01 1.0000000000000000e+01
-1.0000000000000000e+01 1.0000000000000000e+01
ITEM: ENTRIES index c_angles
1 35.4394 
2 40.1126 
3 81.0535 
4 12.5516 
5 68.189 
6 105.866 
7 69.5473 
8 50.7023 
9 79.0342 
10 112.481 
ITEM: TIMESTEP
94300
ITEM: NUMBER OF ENTRIES
10
ITEM: BOX BOUNDS pp pp pp
-1.0000000000000000e+01 1.0000000000000000e+01
-1.0000000000000000e+01 1.0000000000000000e+01
-1.0000000000000000e+01 1.0000000000000000e+01
ITEM: ENTRIES index c_angles
1 34.0821 
2 48.6072 
3 84.1773 
4 14.3577 
5 75.0518 
6 96.9612 
7 76.5615 
8 53.2098 
9 79.0632 
10 109.933 
ITEM: TIMESTEP
94400
ITEM: NUMBER OF ENTRIES
10
ITEM: BOX BOUNDS pp pp pp
-1.0000000000000000e+01 1.0000000000000000e+01
-1.0000000000000000e+01 1.0000000000000000e+01
-1.0000000000000000e+01 1.0000000000000000e+01
ITEM: ENTRIES index c_angles
1 29.8442 
2 53.9486 
3 89.4363 
4 34.9308 
5 78.492 
6 90.4509 
7 84.7333 
8 56.9368 
9 81.0763 
10 97.1869 
ITEM: TIMESTEP
94500
ITEM: NUMBER OF ENTRIES
10
ITEM: BOX BOUNDS pp pp pp
-1.0000000000000000e+01 1.0000000000000000e+01
-1.0000000000000000e+01 1.0000000000000000e+01
-1.0000000000000000e+01 1.0000000000000000e+01
ITEM: ENTRIES index c_angles
1 20.7994 
2 60.7205 
3 94.175 
4 59.388 
5 71.8747 
6 83.3807 
7 94.5032 
8 59.8634 
9 86.4148 
10 87.8314 
ITEM: TIMESTEP
94600
ITEM: NUMBER OF ENTRIES
10
ITEM: BOX BOUNDS pp pp pp
-1.0000000000000000e+01 1.0000000000000000e+01
-1.0000000000000000e+01 1.0000000000000000e+01
-1.0000000000000000e+01 1.0000000000000000e+01
ITEM: ENTRIES index c_angles
1 12.3799 
2 67.5168 
3 101.971 
4 82.3334 
5 69.8745 
6 71.7467 
7 101.515 
8 65.2922 
9 90.8804 
10 86.4925 
ITEM: TIMESTEP
94700
ITEM: NUMBER OF ENTRIES
10
ITEM: BOX BOUNDS pp pp pp
-1.0000000000000000e+01 1.0000000000000000e+01
-1.0000000000000000e+01 1.0000000000000000e+01
-1.0000000000000000e+01 1.0000000000000000e+01
ITEM: ENTRIES index c_angles
1 10.1003 
2 70.5655 
3 111.825 
4 100.399 
5 71.4874 
6 62.1313 
7 99.5079 
8 73.248 
9 92.1718 
10 93.565 
ITEM: TIMESTEP
94800
ITEM: NUMBER OF ENTRIES
10
ITEM: BOX BOUNDS pp pp pp
-1.0000000000000000e+01 1.0000000000000000e+01
-1.0000000000000000e+01 1.0000000000000000e+01
-1.0000000000000000e+01 1.0000000000000000e+01
ITEM: ENTRIES index c_angles
1 15.7448 
2 79.4805 
3 103.603 
4 113.706 
5 74.4136 
6 57.531 
7 90.0496 
8 78.7388 
9 93.6393 
10 103.635 
ITEM: TIMESTEP
94900
ITEM: NUMBER OF ENTRIES
10
ITEM: BOX BOUNDS pp pp pp
-1.0000000000000000e+01 1.0000000000000000e+01
-1.0000000000000000e+01 1.0000000000000000e+01
-1.0000000000000000e+01 1.0000000000000000e+01
ITEM: ENTRIES index c_angles
1 26.0951 
2 86.509 
3 83.3694 
4 126.711 
5 75.6769 
6 55.7841 
7 83.6728 
8 74.6385 
9 88.6852 
10 107.439 
ITEM: TIMESTEP
95000
ITEM: NUMBER OF ENTRIES
10
ITEM: BOX BOUNDS pp pp pp
-1.0000000000000000e+01 1.0000000000000000e+01
-1.0000000000000000e+01 1.0000000000000000e+01
-1.0000000000000000e+01 1.0000000000000000e+01
ITEM: ENTRIES index c_angles
1 38.312 
2 82.3016 
3 72.3061 
4 119.034 
5 73.4411 
6 55.685 
7 85.4978 
8 69.5052 
9 74.0872 
10 94.0691 
ITEM: TIMESTEP
95100
ITEM: NUMBER OF ENTRIES
10
ITEM: BOX BOUNDS pp pp pp
-1.0000000000000000e+01 1.0000000000000000e+01
-1.0000000000000000e+01 1.0000000000000000e+01
-1.0000000000000000e+01 1.0000000000000000e+01
ITEM: ENTRIES index c_angles
1 53.4295 
2 74.1071 
3 67.0975 
4 94.8218 
5 65.6259 
6 54.2912 
7 89.891 
8 66.1248 
9 58.8658 
10 75.4787 
ITEM: TIMESTEP
95200
ITEM: NUMBER OF ENTRIES
10
ITEM: BOX BOUNDS pp pp pp
-1.0000000000000000e+01 1.0000000000000000e+01
-1.0000000000000000e+01 1.0000000000000000e+01
-1.0000000000000000e+01 1.0000000000000000e+01
ITEM: ENTRIES index c_angles
1 63.3626 
2 66.0507 
3 66.3641 
4 86.3322 
5 58.2136 
6 60.455 
7 95.4298 
8 63.398 
9 45.818 
10 63.0908 
ITEM: TIMESTEP
95300
ITEM: NUMBER OF ENTRIES
10
ITEM: BOX BOUNDS pp pp pp
-1.0000000000000000e+01 1.0000000000000000e+01
-1.0000000000000000e+01 1.0000000000000000e+01
-1.0000000000000000e+01 1.0000000000000000e+01
ITEM: ENTRIES index c_angles
1 62.4864 
2 87.2366 
3 57.4309 
4 55.4116 
5 62.6418 
6 95.4224 
7 51.3101 
8 72.1471 
9 62.9648 
10 38.847 
ITEM: TIMESTEP
95400
ITEM: NUMBER OF ENTRIES
10
ITEM: BOX BOUNDS pp pp pp
-1.0000000000000000e+01 1.0000000000000000e+01
-1.0000000000000000e+01 1.0000000000000000e+01
-1.0000000000000000e+01 1.0000000000000000e+01
ITEM: ENTRIES index c_angles
1 56.2399 
2 90.087 
3 48.9919 
4 55.5035 
5 61.8188 
6 93.2982 
7 47.5538 
8 80.8133 
9 67.9764 
10 40.5656 
ITEM: TIMESTEP
95500
ITEM: NUMBER OF ENTRIES
10
ITEM: BOX BOUNDS pp pp pp
-1.0000000000000000e+01 1.0000000000000000e+01
-1.0000000000000000e+01 1.0000000000000000e+01
-1.0000000000000000e+01 1.0000000000000000e+01
ITEM: ENTRIES index c_angles
1 52.6922 
2 91.1676 
3 43.4437 
4 59.8343 
5 67.7169 
6 94.7507 
7 45.5337 
8 91.7104 
9 70.1926 
10 48.7158 
ITEM: TIMESTEP
95600
ITEM: NUMBER OF ENTRIES
10
ITEM: BOX BOUNDS pp pp pp
-1.0000000000000000e+01 1.0000000000000000e+01
-1.0000000000000000e+01 1.0000000000000000e+01
-1.0000000000000000e+01 1.0000000000000000e+01
ITEM: ENTRIES index c_angles
1 50.71 
2 92.4654 
3 41.8762 
4 71.0899 
5 84.666 
6 94.1335 
7 45.7792 
8 103.847 
9 70.1478 
10 56.304 
ITEM: TIMESTEP
95700
ITEM: NUMBER OF ENTRIES
10
ITEM: BOX BOUNDS pp pp pp
-1.0000000000000000e+01 1.0000000000000000e+01
-1.0000000000000000e+01 1.0000000000000000e+01
-1.0000000000000000e+01 1.0000000000000000e+01
ITEM: ENTRIES index c_angles
1 47.5225 
2 98.228 
3 48.4857 
4 82.4852 
5 106.827 
6 96.0845 
7 44.9956 
8 107.009 
9 69.7219 
10 53.821 
ITEM: TIMESTEP
95800
ITEM: NUMBER OF ENTRIES
10
ITEM: BOX BOUNDS pp pp pp
-1.0000000000000000e+01 1.0000000000000000e+01
-1.0000000000000000e+01 1.0000000000000000e+01
-1.0000000000000000e+01 1.0000000000000000e+01
ITEM: ENTRIES index c_angles
1 38.2869 
2 105.263 
3 63.7906 
4 93.595 
5 132.009 
6 99.3664 
7 46.5857 
8 103.551 
9 66.7693 
10 46.6027 
ITEM: TIMESTEP
95900
ITEM: NUMBER OF ENTRIES
10
ITEM: BOX BOUNDS pp pp pp
-1.0000000000000000e+01 1.0000000000000000e+01
-1.0000000000000000e+01 1.0000000000000000e+01
-1.0000000000000000e+01 1.0000000000000000e+01
ITEM: ENTRIES index c_angles
1 23.5051 
2 113.97 
3 88.7244 
4 103.292 
5 155.344 
6 101.764 
7 48.6231 
8 97.4737 
9 66.2387 
10 38.5363 
ITEM: TIMESTEP
96000
ITEM: NUMBER OF ENTRIES
10
ITEM: BOX BOUNDS pp pp pp
-1.0000000000000000e+01 1.0000000000000000e+01
-1.0000000000000000e+01 1.0000000000000000e+01
-1.0000000000000000e+01 1.0000000000000000e+01
ITEM: ENTRIES index c_angles
1 15.8603 
2 124.149 
3 107.361 
4 106.057 
5 175.061 
6 106.981 
7 49.4597 
8 92.2958 
9 68.6916 
10 34.9297 
ITEM: TIMESTEP
96100
ITEM: NUMBER OF ENTRIES
10
ITEM: BOX BOUNDS pp pp pp
-1.0000000000000000e+01 1.0000000000000000e+01
-1.0000000000000000e+01 1.0000000000000000e+01
-1.0000000000000000e+01 1.0000000000000000e+01
ITEM: ENTRIES index c_angles
1 8.13656 
2 129.512 
3 117.06 
4 102.299 
5 150.941 
6 113.028 
7 49.4177 
8 92.8716 
9 69.6289 
10 35.4095 
ITEM: TIMESTEP
96200
ITEM: NUMBER OF ENTRIES
10
ITEM: BOX BOUNDS pp pp pp
-1.0000000000000000e+01 1.0000000000000000e+01
-1.0000000000000000e+01 1.0000000000000000e+01
-1.0000000000000000e+01 1.0000000000000000e+01
ITEM: ENTRIES index c_angles
1 9.94918 
2 123.944 
3 122.385 
4 125.82 
5 94.3868 
6 38.0542 
7 117.898 
8 47.8794 
9 100.197 
10 69.525 
ITEM: TIMESTEP
96300
ITEM: NUMBER OF ENTRIES
10
ITEM: BOX BOUNDS pp pp pp
-1.0000000000000000e+01 1.0000000000000000e+01
-1.0000000000000000e+01 1.0000000000000000e+01
-1.0000000000000000e+01 1.0000000000000000e+01
ITEM: ENTRIES index c_angles
1 16.2917 
2 112.735 
3 127.861 
4 110.151 
5 86.6575 
6 41.3825 
7 119.114 
8 48.4162 
9 112.426 
10 64.9746 
ITEM: TIMESTEP
96400
ITEM: NUMBER OF ENTRIES
10
ITEM: BOX BOUNDS pp pp pp
-1.0000000000000000e+01 1.0000000000000000e+01
-1.0000000000000000e+01 1.0000000000000000e+01
-1.0000000000000000e+01 1.0000000000000000e+01
ITEM: ENTRIES index c_angles
1 22.8338 
2 98.6478 
3 136.65 
4 98.2551 
5 83.9309 
6 47.4399 
7 116.585 
8 50.9398 
9 127.819 
10 52.351 
ITEM: TIMESTEP
96500
ITEM: NUMBER OF ENTRIES
10
ITEM: BOX BOUNDS pp pp pp
-1.0000000000000000e+01 1.0000000000000000e+01
-1.0000000000000000e+01 1.0000000000000000e+01
-1.0000000000000000e+01 1.0000000000000000e+01
ITEM: ENTRIES index c_angles
1 26.5477 
2 82.6207 
3 147.711 
4 92.7274 
5 82.0865 
6 50.4357 
7 110.861 
8 49.5113 
9 128.843 
10 37.172 
ITEM: TIMESTEP
96600
ITEM: NUMBER OF ENTRIES
10
ITEM: BOX BOUNDS pp pp pp
-1.0000000000000000e+01 1.0000000000000000e+01
-1.0000000000000000e+01 1.0000000000000000e+01
-1.0000000000000000e+01 1.0000000000000000e+01
ITEM: ENTRIES index c_angles
1 31.4836 
2 70.0436 
3 165.27 
4 86.5905 
5 80.1229 
6 53.6281 
7 110.337 
8 42.9719 
9 108.856 
10 27.0232 
ITEM: TIMESTEP
96700
ITEM: NUMBER OF ENTRIES
10
ITEM: BOX BOUNDS pp pp pp
-1.0000000000000000e+01 1.0000000000000000e+01
-1.0000000000000000e+01 1.0000000000000000e+01
-1.0000000000000000e+01 1.0000000000000000e+01
ITEM: ENTRIES index c_angles
1 35.564 
2 62.8165 
3 170.072 
4 83.8305 
5 82.3461 
6 62.5187 
7 109.186 
8 36.6783 
9 79.184 
10 27.9256 
ITEM: TIMESTEP
96800
ITEM: NUMBER OF ENTRIES
10
ITEM: BOX BOUNDS pp pp pp
-1.0000000000000000e+01 1.0000000000000000e+01
-1.0000000000000000e+01 1.0000000000000000e+01
-1.0000000000000000e+01 1.0000000000000000e+01
ITEM: ENTRIES index c_angles
1 36.554 
2 59.1499 
3 142.616 
4 84.2411 
5 95.2881 
6 72.0479 
7 113.93 
8 33.4786 
9 59.7916 
10 35.2828 
ITEM: TIMESTEP
96900
ITEM: NUMBER OF ENTRIES
10
ITEM: BOX BOUNDS pp pp pp
-1.0000000000000000e+01 1.0000000000000000e+01
-1.0000000000000000e+01 1.0000000000000000e+01
-1.0000000000000000e+01 1.0000000000000000e+01
ITEM: ENTRIES index c_angles
1 34.5813 
2 60.4177 
3 116.398 
4 89.3968 
5 113.559 
6 85.9645 
7 128.101 
8 32.9205 
9 49.4779 
10 45.5701 
ITEM: TIMESTEP
97000
ITEM: NUMBER OF ENTRIES
10
ITEM: BOX BOUNDS pp pp pp
-1.0000000000000000e+01 1.0000000000000000e+01
-1.0000000000000000e+01 1.0000000000000000e+01
-1.0000000000000000e+01 1.0000000000000000e+01
ITEM: ENTRIES index c_angles
1 33.2515 
2 64.279 
3 96.378 
4 92.9754 
5 125.064 
6 101.23 
7 146.033 
8 32.7601 
9 44.3752 
10 57.943 
ITEM: TIMESTEP
97100
ITEM: NUMBER OF ENTRIES
10
ITEM: BOX BOUNDS pp pp pp
-1.0000000000000000e+01 1.0000000000000000e+01
-1.0000000000000000e+01 1.0000000000000000e+01
-1.0000000000000000e+01 1.0000000000000000e+01
ITEM: ENTRIES index c_angles
1 37.0428 
2 77.0289 
3 96.1382 
4 125.173 
5 111.813 
6 69.9045 
7 159.959 
8 68.6338 
9 44.6738 
10 39.5006 
ITEM: TIMESTEP
97200
ITEM: NUMBER OF ENTRIES
10
ITEM: BOX BOUNDS pp pp pp
-1.0000000000000000e+01 1.0000000000000000e+01
-1.0000000000000000e+01 1.0000000000000000e+01
-1.0000000000000000e+01 1.0000000000000000e+01
ITEM: ENTRIES index c_angles
1 39.3749 
2 67.5366 
3 96.4937 
4 114.566 
5 117.375 
6 72.955 
7 156.642 
8 75.7193 
9 47.4707 
10 52.2245 
ITEM: TIMESTEP
97300
ITEM: NUMBER OF ENTRIES
10
ITEM: BOX BOUNDS pp pp pp
-1.0000000000000000e+01 1.0000000000000000e+01
-1.0000000000000000e+01 1.0000000000000000e+01
-1.0000000000000000e+01 1.0000000000000000e+01
ITEM: ENTRIES index c_angles
1 32.7831 
2 64.6228 
3 91.2015 
4 105.693 
5 119.801 
6 77.2221 
7 140.021 
8 79.8218 
9 51.8438 
10 70.8503 
ITEM: TIMESTEP
97400
ITEM: NUMBER OF ENTRIES
10
ITEM: BOX BOUNDS pp pp pp
-1.0000000000000000e+01 1.0000000000000000e+01
-1.0000000000000000e+01 1.0000000000000000e+01
-1.0000000000000000e+01 1.0000000000000000e+01
ITEM: ENTRIES index c_angles
1 26.8211 
2 66.5251 
3 75.9328 
4 98.2322 
5 118.028 
6 82.4484 
7 124.839 
8 80.9565 
9 55.2866 
10 83.5092 
ITEM: TIMESTEP
97500
ITEM: NUMBER OF ENTRIES
10
ITEM: BOX BOUNDS pp pp pp
-1.0000000000000000e+01 1.0000000000000000e+01
-1.0000000000000000e+01 1.0000000000000000e+01
-1.0000000000000000e+01 1.0000000000000000e+01
ITEM: ENTRIES index c_angles
1 16.2033 
2 67.8066 
3 57.3603 
4 94.7767 
5 114.842 
6 82.5935 
7 108.574 
8 82.8473 
9 57.2396 
10 97.2923 
ITEM: TIMESTEP
97600
ITEM: NUMBER OF ENTRIES
10
ITEM: BOX BOUNDS pp pp pp
-1.0000000000000000e+01 1.0000000000000000e+01
-1.0000000000000000e+01 1.0000000000000000e+01
-1.0000000000000000e+01 1.0000000000000000e+01
ITEM: ENTRIES index c_angles
1 9.29689 
2 65.8947 
3 37.3451 
4 91.8332 
5 118.513 
6 77.9145 
7 92.2138 
8 84.7331 
9 62.2668 
10 101.155 
ITEM: TIMESTEP
97700
ITEM: NUMBER OF ENTRIES
10
ITEM: BOX BOUNDS pp pp pp
-1.0000000000000000e+01 1.0000000000000000e+01
-1.0000000000000000e+01 1.0000000000000000e+01
-1.0000000000000000e+01 1.0000000000000000e+01
ITEM: ENTRIES index c_angles
1 10.9201 
2 68.8519 
3 24.5012 
4 91.532 
5 120.821 
6 70.5633 
7 83.3561 
8 86.2559 
9 75.3519 
10 95.6265 
ITEM: TIMESTEP
97800
ITEM: NUMBER OF ENTRIES
10
ITEM: BOX BOUNDS pp pp pp
-1.0000000000000000e+01 1.0000000000000000e+01
-1.0000000000000000e+01 1.0000000000000000e+01
-1.0000000000000000e+01 1.0000000000000000e+01
ITEM: ENTRIES index c_angles
1 18.2896 
2 82.4105 
3 27.2723 
4 94.5687 
5 120.407 
6 60.1008 
7 82.1708 
8 89.923 
9 93.4086 
10 91.1602 
ITEM: TIMESTEP
97900
ITEM: NUMBER OF ENTRIES
10
ITEM: BOX BOUNDS pp pp pp
-1.0000000000000000e+01 1.0000000000000000e+01
-1.0000000000000000e+01 1.0000000000000000e+01
-1.0000000000000000e+01 1.0000000000000000e+01
ITEM: ENTRIES index c_angles
1 30.2817 
2 95.7639 
3 43.6255 
4 102.961 
5 108.119 
6 51.5045 
7 87.1307 
8 93.1872 
9 110.465 
10 88.0836 
ITEM: TIMESTEP
98000
ITEM: NUMBER OF ENTRIES
10
ITEM: BOX BOUNDS pp pp pp
-1.0000000000000000e+01 1.0000000000000000e+01
-1.0000000000000000e+01 1.0000000000000000e+01
-1.0000000000000000e+01 1.0000000000000000e+01
ITEM: ENTRIES index c_angles
1 35.6444 
2 112.508 
3 56.2969 
4 116.909 
5 91.8872 
6 44.7009 
7 90.7543 
8 100.669 
9 115.124 
10 85.9923 
ITEM: TIMESTEP
98100
ITEM: NUMBER OF ENTRIES
10
ITEM: BOX BOUNDS pp pp pp
-1.0000000000000000e+01 1.0000000000000000e+01
-1.0000000000000000e+01 1.0000000000000000e+01
-1.0000000000000000e+01 1.0000000000000000e+01
ITEM: ENTRIES index c_angles
1 39.6523 
2 134.223 
3 64.0007 
4 134.044 
5 76.9732 
6 39.5179 
7 98.0403 
8 114.548 
9 119.171 
10 87.5655 
ITEM: TIMESTEP
98200
ITEM: NUMBER OF ENTRIES
10
ITEM: BOX BOUNDS pp pp pp
-1.0000000000000000e+01 1.0000000000000000e+01
-1.0000000000000000e+01 1.0000000000000000e+01
-1.0000000000000000e+01 1.0000000000000000e+01
ITEM: ENTRIES index c_angles
1 67.2635 
2 155.156 
3 147.321 
4 68.5295 
5 43.2867 
6 36.7064 
7 94.7651 
8 131.029 
9 90.9844 
10 121.713 
ITEM: TIMESTEP
98300
ITEM: NUMBER OF ENTRIES
10
ITEM: BOX BOUNDS pp pp pp
-1.0000000000000000e+01 1.0000000000000000e+01
-1.0000000000000000e+01 1.0000000000000000e+01
-1.0000000000000000e+01 1.0000000000000000e+01
ITEM: ENTRIES index c_angles
1 70.0903 
2 166.736 
3 157.838 
4 60.7454 
5 51.2443 
6 35.9759 
7 93.0166 
8 138.429 
9 97.3642 
10 125.72 
ITEM: TIMESTEP
98400
ITEM: NUMBER OF ENTRIES
10
ITEM: BOX BOUNDS pp pp pp
-1.0000000000000000e+01 1.0000000000000000e+01
-1.0000000000000000e+01 1.0000000000000000e+01
-1.0000000000000000e+01 1.0000000000000000e+01
ITEM: ENTRIES index c_angles
1 73.5387 
2 164.955 
3 148.838 
4 58.4396 
5 64.1901 
6 34.3474 
7 84.5143 
8 132.096 
9 115.873 
10 128.419 
ITEM: TIMESTEP
98500
ITEM: NUMBER OF ENTRIES
10
ITEM: BOX BOUNDS pp pp pp
-1.0000000000000000e+01 1.0000000000000000e+01
-1.0000000000000000e+01 1.0000000000000000e+01
-1.0000000000000000e+01 1.0000000000000000e+01
ITEM: ENTRIES index c_angles
1 75.6911 
2 159.422 
3 128.062 
4 59.3966 
5 79.3727 
6 35.6804 
7 73.7512 
8 115.648 
9 147.475 
10 136.469 
ITEM: TIMESTEP
98600
ITEM: NUMBER OF ENTRIES
10
ITEM: BOX BOUNDS pp pp pp
-1.0000000000000000e+01 1.0000000000000000e+01
-1.0000000000000000e+01 1.0000000000000000e+01
-1.0000000000000000e+01 1.0000000000000000e+01
ITEM: ENTRIES index c_angles
1 73.4319 
2 159.535 
3 111.787 
4 67.4452 
5 95.8887 
6 38.5287 
7 69.806 
8 102.81 
9 160.536 
10 147.053 
ITEM: TIMESTEP
98700
ITEM: NUMBER OF ENTRIES
10
ITEM: BOX BOUNDS pp pp pp
-1.0000000000000000e+01 1.0000000000000000e+01
-1.0000000000000000e+01 1.0000000000000000e+01
-1.0000000000000000e+01 1.0000000000000000e+01
ITEM: ENTRIES index c_angles
1 68.1029 
2 158.128 
3 101.713 
4 82.3181 
5 102.896 
6 44.8911 
7 67.1048 
8 93.5791 
9 131.422 
10 159.428 
ITEM: TIMESTEP
98800
ITEM: NUMBER OF ENTRIES
10
ITEM: BOX BOUNDS pp pp pp
-1.0000000000000000e+01 1.0000000000000000e+01
-1.0000000000000000e+01 1.0000000000000000e+01
-1.0000000000000000e+01 1.0000000000000000e+01
ITEM: ENTRIES index c_angles
1 64.7984 
2 159.528 
3 89.8858 
4 103.248 
5 96.5414 
6 58.7606 
7 67.856 
8 87.8718 
9 108.099 
10 170.564 
ITEM: TIMESTEP
98900
ITEM: NUMBER OF ENTRIES
10
ITEM: BOX BOUNDS pp pp pp
-1.0000000000000000e+01 1.0000000000000000e+01
-1.0000000000000000e+01 1.0000000000000000e+01
-1.0000000000000000e+01 1.0000000000000000e+01
ITEM: ENTRIES index c_angles
1 63.3098 
2 146.187 
3 78.6113 
4 120.507 
5 85.7759 
6 73.8801 
7 67.7652 
8 85.3295 
9 93.7125 
10 165.48 
ITEM: TIMESTEP
99000
ITEM: NUMBER OF ENTRIES
10
ITEM: BOX BOUNDS pp pp pp
-1.0000000000000000e+01 1.0000000000000000e+01
-1.0000000000000000e+01 1.0000000000000000e+01
-1.0000000000000000e+01 1.0000000000000000e+01
ITEM: ENTRIES index c_angles
1 60.9699 
2 139.818 
3 70.3689 
4 112.436 
5 73.2688 
6 84.6931 
7 70.8794 
8 86.9379 
9 81.5153 
10 159.585 
ITEM: TIMESTEP
99100
ITEM: NUMBER OF ENTRIES
10
ITEM: BOX BOUNDS pp pp pp
-1.0000000000000000e+01 1.0000000000000000e+01
-1.0000000000000000e+01 1.0000000000000000e+01
-1.0000000000000000e+01 1.0000000000000000e+01
ITEM: ENTRIES index c_angles
1 56.2773 
2 131.565 
3 72.3919 
4 103.718 
5 62.5575 
6 101.504 
7 81.3977 
8 86.5209 
9 70.6983 
10 145.343 
ITEM: TIMESTEP
99200
ITEM: NUMBER OF ENTRIES
10
ITEM: BOX BOUNDS pp pp pp
-1.0000000000000000e+01 1.0000000000000000e+01
-1.0000000000000000e+01 1.0000000000000000e+01
-1.0000000000000000e+01 1.0000000000000000e+01
ITEM: ENTRIES index c_angles
1 58.7845 
2 80.1496 
3 98.2433 
4 45.5613 
5 125.809 
6 118.735 
7 95.4514 
8 130.405 
9 65.5957 
10 82.3096 
ITEM: TIMESTEP
99300
ITEM: NUMBER OF ENTRIES
10
ITEM: BOX BOUNDS pp pp pp
-1.0000000000000000e+01 1.0000000000000000e+01
-1.0000000000000000e+01 1.0000000000000000e+01
-1.0000000000000000e+01 1.0000000000000000e+01
ITEM: ENTRIES index c_angles
1 66.6023 
2 86.5435 
3 94.7444 
4 41.887 
5 115.581 
6 142.783 
7 114.817 
8 112.052 
9 64.1727 
10 75.3504 
ITEM: TIMESTEP
99400
ITEM: NUMBER OF ENTRIES
10
ITEM: BOX BOUNDS pp pp pp
-1.0000000000000000e+01 1.0000000000000000e+01
-1.0000000000000000e+01 1.0000000000000000e+01
-1.0000000000000000e+01 1.0000000000000000e+01
ITEM: ENTRIES index c_angles
1 83.9329 
2 89.5242 
3 92.9817 
4 38.8305 
5 104.072 
6 145.188 
7 138.59 
8 104.403 
9 64.6534 
10 65.3035 
ITEM: TIMESTEP
99500
ITEM: NUMBER OF ENTRIES
10
ITEM: BOX BOUNDS pp pp pp
-1.0000000000000000e+01 1.0000000000000000e+01
-1.0000000000000000e+01 1.0000000000000000e+01
-1.0000000000000000e+01 1.0000000000000000e+01
ITEM: ENTRIES index c_angles
1 94.471 
2 78.7974 
3 100.478 
4 38.3161 
5 91.6704 
6 137.795 
7 151.653 
8 106.537 
9 63.2065 
10 52.8249 
ITEM: TIMESTEP
99600
ITEM: NUMBER OF ENTRIES
10
ITEM: BOX BOUNDS pp pp pp
-1.0000000000000000e+01 1.0000000000000000e+01
-1.0000000000000000e+01 1.0000000000000000e+01
-1.0000000000000000e+01 1.0000000000000000e+01
ITEM: ENTRIES index c_angles
1 103.198 
2 73.734 
3 111.422 
4 42.094 
5 79.7449 
6 135.342 
7 157.043 
8 118.392 
9 53 
10 43.1215 
ITEM: TIMESTEP
99700
ITEM: NUMBER OF ENTRIES
10
ITEM: BOX BOUNDS pp pp pp
-1.0000000000000000e+01 1.0000000000000000e+01
-1.0000000000000000e+01 1.0000000000000000e+01
-1.0000000000000000e+01 1.0000000000000000e+01
ITEM: ENTRIES index c_angles
1 104.339 
2 75.5427 
3 125.143 
4 52.5868 
5 72.6914 
6 137.553 
7 157.464 
8 140.094 
9 45.0041 
10 40.0063 
ITEM: TIMESTEP
99800
ITEM: NUMBER OF ENTRIES
10
ITEM: BOX BOUNDS pp pp pp
-1.0000000000000000e+01 1.0000000000000000e+01
-1.0000000000000000e+01 1.0000000000000000e+01
-1.0000000000000000e+01 1.0000000000000000e+01
ITEM: ENTRIES index c_angles
1 102.546 
2 78.7474 
3 134.336 
4 65.77 
5 69.132 
6 134.835 
7 151.891 
8 149.915 
9 25.9704 
10 40.2297 
ITEM: TIMESTEP
99900
ITEM: NUMBER OF ENTRIES
10
ITEM: BOX BOUNDS pp pp pp
-1.0000000000000000e+01 1.0000000000000000e+01
-1.0000000000000000e+01 1.0000000000000000e+01
-1.0000000000000000e+01 1.0000000000000000e+01
ITEM: ENTRIES index c_angles
1 103.337 
2 84.44 
3 142.191 
4 85.7069 
5 69.0872 
6 126.209 
7 141.564 
8 126.474 
9 12.1395 
10 47.5659 
ITEM: TIMESTEP
100000
ITEM: NUMBER OF ENTRIES
10
ITEM: BOX BOUNDS pp pp pp
-1.0000000000000000e+01 1.0000000000000000e+01
-1.0000000000000000e+01 1.0000000000000000e+01
-1.0000000000000000e+01 1.0000000000000000e+01
ITEM: ENTRIES index c_angles
1 103.244 
2 89.9219 
3 147.836 
4 112.805 
5 67.5547 
6 118.92 
7 131.483 
8 94.6805 
9 12.8028 
10 63.5421 
